%nprocshared=40
%mem=12000MB
%chk=scic0Pt001_in0000220.chk
%rwf=/
#p opt

Title Card Required

0 1
 Pt       0.008530       0.058172      -0.012010
 Cl      -0.169650       1.312792      -2.000420
 Cl       0.625710       1.885752       1.343930
 O       1.899590      -0.567918      -0.420640
 H       2.368840       0.216462      -0.744180
 O      -1.955860       0.171622       0.501610
 H      -2.178280       1.114882       0.471520
 N      -0.457330      -1.649588      -1.051620
 H       0.434920      -1.852938      -1.514010
 N       0.054020      -1.171608       1.631150
 H       0.841680      -0.926478       2.230180
 H      -0.833480      -0.931518       2.085060
 H      -1.182180      -1.452478      -1.740900
 C      -0.854650      -2.667778      -0.051610
 C       0.106470      -2.563238       1.126090
 H      -0.151880      -3.280998       1.905550
 H       1.131020      -2.733248       0.796320
 H      -1.867360      -2.414598       0.260820
 H      -0.842070      -3.671788      -0.477390
 O       1.518830      -1.763728       3.015976
 H       0.658590      -1.899818       2.609086
 H       1.445970      -2.212358       3.863046
 O      -3.328000      -1.390848       1.524486
 H      -3.618720      -1.003508       0.694086
 H      -3.460790      -0.686799       2.165436
 O      -1.415350      -3.789829      -0.490584
 H      -2.048610      -3.884248       0.226486
 H      -0.896700      -3.020429      -0.239324
 O       2.741100       3.146341      -0.284554
 H       1.980110       2.611091      -0.526534
 H       2.797550       3.797511      -0.989484
 O       2.898290       2.050221       2.351586
 H       3.744150       2.482741       2.498466
 H       2.625300       2.367231       1.486066
 O      -1.207970       3.766131      -1.535604
 H      -1.758360       3.173431      -2.055144
 H      -1.610390       4.629002      -1.668434
 O       1.537910      -0.038959      -4.042944
 H       1.383570       0.836941      -4.407835
 H       2.025790      -0.493648      -4.735284
 O      -4.472010       1.665092       0.605436
 H      -3.596000       1.288932       0.482036
 H      -4.850170       1.661651      -0.278364
 O      -1.717500       0.398151      -4.957274
 H      -1.327690      -0.475879      -4.866454
 H      -1.007290       0.994092      -4.703074
 O       0.882580       5.072171       0.915736
 H       0.956880       5.639951       0.143596
 H       1.586790       4.428751       0.796486
 O      -1.182750      -3.628258       3.510436
 H      -1.505710      -3.439399       4.395956
 H      -0.527530      -4.318279       3.647076
 O      -3.177000      -3.987909       1.645256
 H      -2.505770      -3.983428       2.333416
 H      -3.535750      -3.096349       1.668316

C O Cl N H 0
6-31g(d,p)
 ****
Pt 0
lanl2dz
****

Pt 0
lanl2dz

Pt 1.72

