%nprocshared=40
%mem=12000MB
%chk=scic0Pt001_in0001000.chk
%rwf=/
#p opt

Title Card Required

0 1
 Pt       0.008530       0.058172      -0.012010
 Cl      -0.169650       1.312792      -2.000420
 Cl       0.625710       1.885752       1.343930
 O       1.899590      -0.567918      -0.420640
 H       2.368840       0.216462      -0.744180
 O      -1.955860       0.171622       0.501610
 H      -2.178280       1.114882       0.471520
 N      -0.457330      -1.649588      -1.051620
 H       0.434920      -1.852938      -1.514010
 N       0.054020      -1.171608       1.631150
 H       0.841680      -0.926478       2.230180
 H      -0.833480      -0.931518       2.085060
 H      -1.182180      -1.452478      -1.740900
 C      -0.854650      -2.667778      -0.051610
 C       0.106470      -2.563238       1.126090
 H      -0.151880      -3.280998       1.905550
 H       1.131020      -2.733248       0.796320
 H      -1.867360      -2.414598       0.260820
 H      -0.842070      -3.671788      -0.477390
 O      -0.060008       3.468398      -0.667487
 H       0.176102       2.874038       0.050203
 H       0.124992       4.342338      -0.312387
 O      -1.183418      -3.266162       1.297913
 H      -0.782668      -2.659672       0.668863
 H      -1.590318      -3.937302       0.742833
 O      -0.671858       1.903328       3.238483
 H      -0.195588       2.093188       2.425323
 H      -0.021798       2.063488       3.928313
 O      -2.962998      -0.030822      -2.661747
 H      -2.291488       0.192488      -3.312397
 H      -3.745638       0.434358      -2.970277
 O       4.322012      -0.197522      -0.674257
 H       3.475422      -0.565512      -0.405937
 H       4.087542       0.461198      -1.333987
 O       1.142822      -4.217552      -1.301337
 H       1.927642      -3.663842      -1.261037
 H       0.829922      -4.107392      -2.203607
 O      -1.115308      -1.496712       4.107954
 H      -1.282738      -0.697122       4.614673
 H      -1.950448      -1.971372       4.145043
 O      -1.916108       3.362648      -2.751957
 H      -2.168418       4.205438      -2.364467
 H      -0.992298       3.263648      -2.505227
 O      -2.506948      -3.243492      -2.583507
 H      -3.409928      -3.365032      -2.890047
 H      -2.465298      -2.310572      -2.355357
 O       0.583222      -3.618762       3.256513
 H      -0.093498      -3.678372       2.576343
 H       0.322322      -2.851542       3.773673
 O      -1.089908       0.804048      -4.695967
 H      -1.179178       1.365918      -5.470867
 H      -0.453208       0.137128      -4.967817
 O      -3.482238      -2.566382       3.111843
 H      -3.169548      -3.414152       2.783783
 H      -4.332448      -2.451552       2.678153

C O Cl N H 0
6-31g(d,p)
 ****
Pt 0
lanl2dz
****

Pt 0
lanl2dz

Pt 1.72

