%nprocshared=40
%mem=12000MB
%chk=scic0Pt001_in0000690.chk
%rwf=/
#p opt

Title Card Required

0 1
 Pt       0.008530       0.058172      -0.012010
 Cl      -0.169650       1.312792      -2.000420
 Cl       0.625710       1.885752       1.343930
 O       1.899590      -0.567918      -0.420640
 H       2.368840       0.216462      -0.744180
 O      -1.955860       0.171622       0.501610
 H      -2.178280       1.114882       0.471520
 N      -0.457330      -1.649588      -1.051620
 H       0.434920      -1.852938      -1.514010
 N       0.054020      -1.171608       1.631150
 H       0.841680      -0.926478       2.230180
 H      -0.833480      -0.931518       2.085060
 H      -1.182180      -1.452478      -1.740900
 C      -0.854650      -2.667778      -0.051610
 C       0.106470      -2.563238       1.126090
 H      -0.151880      -3.280998       1.905550
 H       1.131020      -2.733248       0.796320
 H      -1.867360      -2.414598       0.260820
 H      -0.842070      -3.671788      -0.477390
 O       1.151181      -3.172722       1.366650
 H       0.390681      -2.625172       1.152349
 H       0.822141      -3.767002       2.046849
 O      -1.490049      -2.834912      -1.822631
 H      -1.259729      -2.779782      -2.754330
 H      -1.079379      -3.654222      -1.532450
 O       1.458321       1.987988      -3.063241
 H       2.263391       1.574808      -3.387701
 H       1.357671       2.764498      -3.620930
 O       3.562921       1.713428       1.270589
 H       3.142821       2.094968       0.494669
 H       4.059011       0.968208       0.920279
 O      -4.119409       0.349618       0.968979
 H      -3.842969      -0.486982       0.584579
 H      -3.640279       0.389528       1.801430
 O      -1.864359       3.748508       0.850769
 H      -1.248139       4.280418       0.339429
 H      -1.919209       4.207169       1.693820
 O      -3.030629      -2.374552       2.075469
 H      -2.990779      -3.334712       2.100169
 H      -2.143809      -2.114452       1.810830
 O       4.301941      -0.974722       0.249119
 H       4.100461      -1.900522       0.086559
 H       4.486501      -0.941792       1.191970
 O      -2.891669       0.373788       3.400090
 H      -2.600229      -0.526912       3.567280
 H      -2.858169       0.790608       4.265699
 O       0.873931      -0.306102      -4.470120
 H      -0.069149      -0.463682      -4.569651
 H       0.983281      -0.154012      -3.527241
 O       0.197531       4.633958      -0.602551
 H       0.531991       3.750918      -0.422181
 H       0.889851       5.037979      -1.133210
 O      -4.173149      -2.009372      -1.170700
 H      -3.281589      -2.368862      -1.170040
 H      -4.722699      -2.757312      -0.920291

C O Cl N H 0
6-31g(d,p)
 ****
Pt 0
lanl2dz
****

Pt 0
lanl2dz

Pt 1.72

