%nprocshared=40
%mem=12000MB
%chk=scic0Pt001_in0000730.chk
%rwf=/
#p opt

Title Card Required

0 1
 Pt       0.008530       0.058172      -0.012010
 Cl      -0.169650       1.312792      -2.000420
 Cl       0.625710       1.885752       1.343930
 O       1.899590      -0.567918      -0.420640
 H       2.368840       0.216462      -0.744180
 O      -1.955860       0.171622       0.501610
 H      -2.178280       1.114882       0.471520
 N      -0.457330      -1.649588      -1.051620
 H       0.434920      -1.852938      -1.514010
 N       0.054020      -1.171608       1.631150
 H       0.841680      -0.926478       2.230180
 H      -0.833480      -0.931518       2.085060
 H      -1.182180      -1.452478      -1.740900
 C      -0.854650      -2.667778      -0.051610
 C       0.106470      -2.563238       1.126090
 H      -0.151880      -3.280998       1.905550
 H       1.131020      -2.733248       0.796320
 H      -1.867360      -2.414598       0.260820
 H      -0.842070      -3.671788      -0.477390
 O       2.913423      -1.688830       1.346599
 H       1.953583      -1.653950       1.387019
 H       3.091043      -2.309000       0.633889
 O      -1.037248      -2.071351       3.236269
 H      -1.874257      -2.532851       3.338949
 H      -0.675088      -2.430750       2.421559
 O       0.172493       2.064519      -3.493271
 H       0.925852       1.514639      -3.260441
 H       0.567012       2.912260      -3.716491
 O      -1.473637      -4.127211      -0.062551
 H      -1.935838      -3.314430      -0.285951
 H      -2.174977      -4.782170      -0.005541
 O       2.731133       3.243840      -1.319101
 H       2.326693       2.449670      -1.679461
 H       3.670353       3.039200      -1.309131
 O      -4.183088       1.312649       0.534559
 H      -4.416898       1.152830       1.453209
 H      -3.877107       2.223959       0.530489
 O      -2.525387       2.324140      -2.964081
 H      -2.482837       2.852880      -2.162371
 H      -1.611357       2.279040      -3.258401
 O       0.466123       4.690350       0.035529
 H       0.394772       3.732470       0.074429
 H       1.187363       4.842209      -0.581621
 O      -0.216617      -1.517250      -4.592041
 H       0.308022      -2.042381      -3.981231
 H      -1.057117      -1.982150      -4.631471
 O       3.041463      -3.762290      -0.760241
 H       3.587243      -4.233720      -1.395881
 H       2.342283      -4.387431      -0.549361
 O       1.125342      -3.638110      -3.173551
 H       1.160753      -4.528730      -3.533671
 H       1.849352      -3.616821      -2.541491
 O      -2.844657       4.098239       0.904609
 H      -2.004027       4.409599       1.251719
 H      -2.652337       3.894639      -0.014991

C O Cl N H 0
6-31g(d,p)
 ****
Pt 0
lanl2dz
****

Pt 0
lanl2dz

Pt 1.72

