%nprocshared=40
%mem=12000MB
%chk=scic0Pt001_in0000100.chk
%rwf=/
#p opt

Title Card Required

0 1
 Pt       0.008530       0.058172      -0.012010
 Cl      -0.169650       1.312792      -2.000420
 Cl       0.625710       1.885752       1.343930
 O       1.899590      -0.567918      -0.420640
 H       2.368840       0.216462      -0.744180
 O      -1.955860       0.171622       0.501610
 H      -2.178280       1.114882       0.471520
 N      -0.457330      -1.649588      -1.051620
 H       0.434920      -1.852938      -1.514010
 N       0.054020      -1.171608       1.631150
 H       0.841680      -0.926478       2.230180
 H      -0.833480      -0.931518       2.085060
 H      -1.182180      -1.452478      -1.740900
 C      -0.854650      -2.667778      -0.051610
 C       0.106470      -2.563238       1.126090
 H      -0.151880      -3.280998       1.905550
 H       1.131020      -2.733248       0.796320
 H      -1.867360      -2.414598       0.260820
 H      -0.842070      -3.671788      -0.477390
 O       2.329442       2.234689       2.226288
 H       3.000982       1.572999       2.414248
 H       2.659512       2.680529       1.441168
 O      -2.242218      -3.273741      -0.680932
 H      -2.663578      -4.105911      -0.448392
 H      -2.903008      -2.822551      -1.213742
 O      -1.312878       1.860509       3.407038
 H      -1.866348       2.641159       3.498548
 H      -1.361008       1.442079       4.271158
 O       1.409592      -3.936961      -0.736652
 H       1.144272      -4.108471      -1.644562
 H       0.824032      -4.494691      -0.216832
 O      -1.959908       2.913069      -2.576642
 H      -1.606898       3.227628      -3.413632
 H      -1.176568       2.687749      -2.066992
 O      -3.951678      -0.455531       2.082338
 H      -3.130528      -0.187471       1.660488
 H      -3.898388      -1.415201       2.099938
 O       4.097132      -1.851711       0.653848
 H       3.280222      -1.381961       0.463758
 H       3.800422      -2.694711       1.008028
 O      -0.827428       4.067819       1.832418
 H      -0.329438       4.804618       1.467368
 H      -0.157218       3.400759       2.005538
 O      -3.140338       3.346929       0.006498
 H      -2.315228       3.500438       0.475288
 H      -2.858858       3.089409      -0.875882
 O       4.101302       0.505868      -2.216292
 H       4.645242       0.638779      -1.434872
 H       3.795992       1.390299      -2.436922
 O       1.406352       1.986049      -4.050882
 H       2.248392       1.797479      -4.474602
 H       1.654862       2.404189      -3.221712
 O      -3.992648      -1.698171      -1.919142
 H      -4.749028      -1.439491      -1.385202
 H      -4.328028      -2.419931      -2.458312

C O Cl N H 0
6-31g(d,p)
 ****
Pt 0
lanl2dz
****

Pt 0
lanl2dz

Pt 1.72

