%nprocshared=40
%mem=12000MB
%chk=scic0Pt001_in0000880.chk
%rwf=/
#p opt

Title Card Required

0 1
 Pt       0.008530       0.058172      -0.012010
 Cl      -0.169650       1.312792      -2.000420
 Cl       0.625710       1.885752       1.343930
 O       1.899590      -0.567918      -0.420640
 H       2.368840       0.216462      -0.744180
 O      -1.955860       0.171622       0.501610
 H      -2.178280       1.114882       0.471520
 N      -0.457330      -1.649588      -1.051620
 H       0.434920      -1.852938      -1.514010
 N       0.054020      -1.171608       1.631150
 H       0.841680      -0.926478       2.230180
 H      -0.833480      -0.931518       2.085060
 H      -1.182180      -1.452478      -1.740900
 C      -0.854650      -2.667778      -0.051610
 C       0.106470      -2.563238       1.126090
 H      -0.151880      -3.280998       1.905550
 H       1.131020      -2.733248       0.796320
 H      -1.867360      -2.414598       0.260820
 H      -0.842070      -3.671788      -0.477390
 O       3.202312       0.284939       2.375517
 H       2.941662       1.204089       2.268967
 H       3.254982       0.169979       3.328487
 O       1.327482      -3.397411       1.747007
 H       1.811152      -3.416551       0.916447
 H       0.649532      -4.069481       1.633707
 O       2.955952       2.080029      -2.172043
 H       3.552422       2.147609      -1.421223
 H       2.865302       2.987509      -2.475953
 O       0.797002       4.093389       1.021427
 H       1.152172       3.211469       0.879307
 H       1.060202       4.576909       0.233357
 O      -4.079628       1.058359       1.249907
 H      -3.815978       1.948279       1.500197
 H      -4.160768       0.597899       2.089867
 O      -2.530988      -3.115021       1.926297
 H      -2.005898      -2.434201       1.496377
 H      -3.297298      -3.210051       1.353717
 O      -2.188918       3.819309      -0.305023
 H      -2.248188       4.748939      -0.067563
 H      -1.423478       3.778679      -0.885153
 O      -2.924568      -2.845271      -1.855523
 H      -2.528758      -2.388061      -2.602813
 H      -3.384048      -3.587811      -2.257563
 O       0.683622       0.426199      -4.754203
 H       1.477892       0.320679      -4.223053
 H      -0.004738       0.600359      -4.106183
 O      -0.376048      -4.830161      -0.433653
 H      -0.390508      -4.941801      -1.388343
 H      -0.999398      -4.115431      -0.276373
 O       3.607232       0.113269      -3.638423
 H       3.577482      -0.459341      -2.866843
 H       3.318852       0.966619      -3.302603
 O       5.068792       0.992729       0.051387
 H       4.723473       0.507819       0.806187
 H       4.603952       1.833469       0.086147

C O Cl N H 0
6-31g(d,p)
 ****
Pt 0
lanl2dz
****

Pt 0
lanl2dz

Pt 1.72

