%nprocshared=40
%mem=12000MB
%chk=scic0Pt001_in0000300.chk
%rwf=/
#p opt

Title Card Required

0 1
 Pt       0.008530       0.058172      -0.012010
 Cl      -0.169650       1.312792      -2.000420
 Cl       0.625710       1.885752       1.343930
 O       1.899590      -0.567918      -0.420640
 H       2.368840       0.216462      -0.744180
 O      -1.955860       0.171622       0.501610
 H      -2.178280       1.114882       0.471520
 N      -0.457330      -1.649588      -1.051620
 H       0.434920      -1.852938      -1.514010
 N       0.054020      -1.171608       1.631150
 H       0.841680      -0.926478       2.230180
 H      -0.833480      -0.931518       2.085060
 H      -1.182180      -1.452478      -1.740900
 C      -0.854650      -2.667778      -0.051610
 C       0.106470      -2.563238       1.126090
 H      -0.151880      -3.280998       1.905550
 H       1.131020      -2.733248       0.796320
 H      -1.867360      -2.414598       0.260820
 H      -0.842070      -3.671788      -0.477390
 O      -2.299801      -2.759661       0.930080
 H      -2.407401      -1.989312       1.494970
 H      -3.198741      -2.984011       0.673700
 O       0.710149       2.384068       2.906220
 H       0.145709       2.997079       2.426870
 H       1.558009       2.835379       2.945940
 O       1.785609      -3.725832      -0.566100
 H       1.383459      -2.950101      -0.165320
 H       2.442419      -4.003262       0.078690
 O       1.479109      -1.865872      -3.361120
 H       1.572629      -2.821651      -3.404220
 H       1.454569      -1.595542      -4.283320
 O       1.899929       1.726918      -3.284120
 H       1.100029       2.257849      -3.333450
 H       2.375419       1.952408      -4.088590
 O      -2.235521       3.772319      -0.872670
 H      -2.272271       4.629529      -1.306240
 H      -2.654621       3.178419      -1.501780
 O      -1.535181      -3.659231      -2.281720
 H      -1.093971      -2.908041      -2.688130
 H      -1.394851      -3.526281      -1.340040
 O      -1.111311       4.075879       1.664050
 H      -1.879051       4.654149       1.681580
 H      -1.103631       3.731239       0.766650
 O       2.725009      -1.141551       3.444860
 H       2.960459      -2.033101       3.173140
 H       3.541909      -0.645892       3.339470
 O       1.572549       4.266499      -0.964150
 H       0.919359       3.561388      -0.946820
 H       1.360739       4.756389      -1.763690
 O      -4.716651       1.014208       0.050430
 H      -3.772821       1.147708       0.174840
 H      -4.768151       0.440858      -0.719480
 O      -0.324311       0.000538       4.896110
 H      -0.555411       0.752818       4.344010
 H       0.400389      -0.417812       4.422900

C O Cl N H 0
6-31g(d,p)
 ****
Pt 0
lanl2dz
****

Pt 0
lanl2dz

Pt 1.72

