%nprocshared=40
%mem=12000MB
%chk=scic0Pt001_in0000270.chk
%rwf=/
#p opt

Title Card Required

0 1
 Pt       0.008530       0.058172      -0.012010
 Cl      -0.169650       1.312792      -2.000420
 Cl       0.625710       1.885752       1.343930
 O       1.899590      -0.567918      -0.420640
 H       2.368840       0.216462      -0.744180
 O      -1.955860       0.171622       0.501610
 H      -2.178280       1.114882       0.471520
 N      -0.457330      -1.649588      -1.051620
 H       0.434920      -1.852938      -1.514010
 N       0.054020      -1.171608       1.631150
 H       0.841680      -0.926478       2.230180
 H      -0.833480      -0.931518       2.085060
 H      -1.182180      -1.452478      -1.740900
 C      -0.854650      -2.667778      -0.051610
 C       0.106470      -2.563238       1.126090
 H      -0.151880      -3.280998       1.905550
 H       1.131020      -2.733248       0.796320
 H      -1.867360      -2.414598       0.260820
 H      -0.842070      -3.671788      -0.477390
 O      -0.788559      -2.863739      -1.802502
 H      -1.220019      -3.721109      -1.748792
 H      -0.831469      -2.528109      -0.902702
 O      -2.981739      -1.402319       1.622838
 H      -2.875089      -0.459809       1.466578
 H      -3.330909      -1.448929       2.517298
 O       0.546811      -2.116519       3.083218
 H      -0.260269      -1.736409       2.725098
 H       0.549831      -1.827539       4.000068
 O       2.379721       1.350401       2.763438
 H       2.258381       2.239301       2.418128
 H       2.713791       1.493201       3.653448
 O       2.017111       1.154981      -3.304012
 H       2.422341       1.236351      -4.171942
 H       1.718581       2.046881      -3.105222
 O      -0.796779       3.703471      -1.583232
 H      -0.903279       3.779961      -2.535562
 H      -1.658199       3.404341      -1.278932
 O      -2.972399       3.094271      -0.064472
 H      -3.226409       2.709701      -0.908082
 H      -3.023399       2.356131       0.549268
 O       3.669801       2.720371      -0.605562
 H       4.426811       2.393591      -1.099792
 H       3.005431       2.035631      -0.723422
 O       1.059571      -1.248439      -4.431542
 H       1.519841      -0.415539      -4.295202
 H       1.767481      -1.897049      -4.479462
 O       1.447721       4.009771       2.094878
 H       0.835471       4.009391       1.353748
 H       1.480251       4.931592       2.365618
 O      -1.678889      -1.796199      -4.334842
 H      -1.660539      -2.359179      -3.555842
 H      -0.761389      -1.533459      -4.450172
 O      -4.057349      -2.844089      -0.695172
 H      -3.831859      -2.446839       0.150688
 H      -4.647789      -3.565389      -0.460192

C O Cl N H 0
6-31g(d,p)
 ****
Pt 0
lanl2dz
****

Pt 0
lanl2dz

Pt 1.72

