%nprocshared=40
%mem=12000MB
%chk=scic0Pt001_in0000360.chk
%rwf=/
#p opt

Title Card Required

0 1
 Pt       0.008530       0.058172      -0.012010
 Cl      -0.169650       1.312792      -2.000420
 Cl       0.625710       1.885752       1.343930
 O       1.899590      -0.567918      -0.420640
 H       2.368840       0.216462      -0.744180
 O      -1.955860       0.171622       0.501610
 H      -2.178280       1.114882       0.471520
 N      -0.457330      -1.649588      -1.051620
 H       0.434920      -1.852938      -1.514010
 N       0.054020      -1.171608       1.631150
 H       0.841680      -0.926478       2.230180
 H      -0.833480      -0.931518       2.085060
 H      -1.182180      -1.452478      -1.740900
 C      -0.854650      -2.667778      -0.051610
 C       0.106470      -2.563238       1.126090
 H      -0.151880      -3.280998       1.905550
 H       1.131020      -2.733248       0.796320
 H      -1.867360      -2.414598       0.260820
 H      -0.842070      -3.671788      -0.477390
 O      -2.302001       0.339880       2.581380
 H      -2.213310       0.545670       1.646550
 H      -2.618800       1.160870       2.968380
 O      -3.022151       1.634000      -1.513830
 H      -3.220001       2.537540      -1.251910
 H      -2.694150       1.722000      -2.413170
 O       3.605560       0.528050      -1.431460
 H       3.146610       0.265970      -2.234450
 H       4.496459       0.729460      -1.731270
 O      -0.312671       4.122070       0.199040
 H      -0.815411       3.322790       0.379480
 H      -0.218341       4.123180      -0.757620
 O       0.404749      -4.040300       1.017440
 H       0.724499      -4.588840       1.739260
 H       0.383819      -3.155610       1.392950
 O       1.284299      -2.272870       3.367670
 H       2.191170      -1.954570       3.347800
 H       1.166579      -2.575030       4.272640
 O       0.024479       3.651590      -2.471850
 H       0.349149       2.770790      -2.679020
 H      -0.016151       4.088600      -3.327120
 O       0.051419      -4.149570      -1.860300
 H      -0.592551      -3.436520      -1.891420
 H       0.411229      -4.095620      -0.970470
 O      -1.692651      -2.883930       3.140000
 H      -1.180191      -3.601660       2.757410
 H      -2.579480      -3.026770       2.797580
 O       4.084770      -2.371740      -0.647900
 H       3.595449      -1.558280      -0.799510
 H       3.488830      -2.901770      -0.111200
 O       3.393260       3.902580      -0.125120
 H       3.829859       3.315870      -0.749040
 H       3.533309       4.778180      -0.496400
 O      -1.612621      -1.617260      -4.849250
 H      -1.536881      -2.575070      -4.817850
 H      -1.507391      -1.348230      -3.932360

C O Cl N H 0
6-31g(d,p)
 ****
Pt 0
lanl2dz
****

Pt 0
lanl2dz

Pt 1.72

