%nprocshared=40
%mem=12000MB
%chk=scic0Pt001_in0000960.chk
%rwf=/
#p opt

Title Card Required

0 1
 Pt       0.008530       0.058172      -0.012010
 Cl      -0.169650       1.312792      -2.000420
 Cl       0.625710       1.885752       1.343930
 O       1.899590      -0.567918      -0.420640
 H       2.368840       0.216462      -0.744180
 O      -1.955860       0.171622       0.501610
 H      -2.178280       1.114882       0.471520
 N      -0.457330      -1.649588      -1.051620
 H       0.434920      -1.852938      -1.514010
 N       0.054020      -1.171608       1.631150
 H       0.841680      -0.926478       2.230180
 H      -0.833480      -0.931518       2.085060
 H      -1.182180      -1.452478      -1.740900
 C      -0.854650      -2.667778      -0.051610
 C       0.106470      -2.563238       1.126090
 H      -0.151880      -3.280998       1.905550
 H       1.131020      -2.733248       0.796320
 H      -1.867360      -2.414598       0.260820
 H      -0.842070      -3.671788      -0.477390
 O      -0.904271       2.677291      -2.589891
 H      -0.335091       3.211161      -2.028522
 H      -0.339411       2.440311      -3.330751
 O      -1.921051       1.319081       3.170069
 H      -1.204991       1.818031       2.767059
 H      -1.767921       1.418831       4.113839
 O      -0.203101       4.177432      -0.068361
 H       0.743529       4.020981      -0.127671
 H      -0.537201       3.396971       0.382629
 O       3.865029       1.502991       1.050759
 H       2.933029       1.352331       1.231809
 H       3.880169       2.365171       0.625879
 O      -1.903911      -2.855389       2.428009
 H      -2.851401      -2.894849       2.585709
 H      -1.635881      -3.778339       2.406459
 O      -0.994511      -0.618599      -4.073842
 H      -0.350031      -0.287069      -4.705381
 H      -1.841061      -0.391979      -4.468941
 O       0.819919      -4.151819       0.813839
 H       0.189309      -3.535928       0.430279
 H       0.271929      -4.877629       1.125349
 O       1.443799       3.157562       2.532869
 H       2.034089       3.540452       3.187889
 H       0.568509       3.287361       2.908539
 O       1.038719      -2.616168      -3.445841
 H       0.480409      -1.925219      -3.078461
 H       0.412349      -3.261809      -3.784851
 O       2.506929       3.628831       0.068279
 H       2.921579       4.484352       0.210629
 H       2.045949       3.456621       0.894079
 O       3.553239      -2.338209      -1.715091
 H       2.861189      -1.885119      -2.204871
 H       3.233729      -3.242459      -1.649091
 O       0.025119      -1.842179       4.550549
 H      -0.510451      -1.919349       3.755999
 H       0.851739      -2.271669       4.313128

C O Cl N H 0
6-31g(d,p)
 ****
Pt 0
lanl2dz
****

Pt 0
lanl2dz

Pt 1.72

