%nprocshared=40
%mem=12000MB
%chk=scic0Pt001_in0000490.chk
%rwf=/
#p opt

Title Card Required

0 1
 Pt       0.008530       0.058172      -0.012010
 Cl      -0.169650       1.312792      -2.000420
 Cl       0.625710       1.885752       1.343930
 O       1.899590      -0.567918      -0.420640
 H       2.368840       0.216462      -0.744180
 O      -1.955860       0.171622       0.501610
 H      -2.178280       1.114882       0.471520
 N      -0.457330      -1.649588      -1.051620
 H       0.434920      -1.852938      -1.514010
 N       0.054020      -1.171608       1.631150
 H       0.841680      -0.926478       2.230180
 H      -0.833480      -0.931518       2.085060
 H      -1.182180      -1.452478      -1.740900
 C      -0.854650      -2.667778      -0.051610
 C       0.106470      -2.563238       1.126090
 H      -0.151880      -3.280998       1.905550
 H       1.131020      -2.733248       0.796320
 H      -1.867360      -2.414598       0.260820
 H      -0.842070      -3.671788      -0.477390
 O      -0.119659      -3.327133      -2.030600
 H      -0.702679      -3.185633      -1.279480
 H      -0.376279      -2.641083      -2.653160
 O      -3.313109      -0.721913      -1.943090
 H      -3.307369       0.160767      -2.323840
 H      -3.090829      -1.293103      -2.683670
 O       3.944051      -0.197803      -0.085700
 H       4.314431      -0.010803      -0.952850
 H       3.310061       0.511697       0.051270
 O      -0.061429       1.834577       3.649640
 H       0.859211       2.015237       3.859240
 H      -0.485829       1.776027       4.510210
 O      -1.528179      -2.048363       3.573970
 H      -1.310699      -1.726643       4.453360
 H      -1.372329      -2.995263       3.630600
 O       3.034041       2.354147      -2.689590
 H       2.672571       2.308577      -3.579190
 H       3.024351       3.293487      -2.485430
 O      -4.808949      -0.185213       0.369320
 H      -4.497319      -0.917503       0.908550
 H      -4.206339      -0.178573      -0.379630
 O      -2.123939      -4.451143       1.054230
 H      -2.432539      -5.024693       1.761280
 H      -2.615819      -3.636143       1.188190
 O       2.042351      -1.108863      -4.575130
 H       2.961181      -1.172793      -4.299800
 H       1.666301      -0.461353      -3.972270
 O       2.584711       4.151447       1.594830
 H       3.529141       4.303427       1.499540
 H       2.524361       3.221937       1.832590
 O      -4.162629      -2.140683       2.231760
 H      -3.386019      -1.879563       2.734570
 H      -4.347329      -3.032093       2.540570
 O       1.501191       4.906727      -0.850830
 H       1.840341       4.588937      -0.009320
 H       2.287171       4.992967      -1.397590

C O Cl N H 0
6-31g(d,p)
 ****
Pt 0
lanl2dz
****

Pt 0
lanl2dz

Pt 1.72

