%nprocshared=40
%mem=12000MB
%chk=scic0Pt001_in0000910.chk
%rwf=/
#p opt

Title Card Required

0 1
 Pt       0.008530       0.058172      -0.012010
 Cl      -0.169650       1.312792      -2.000420
 Cl       0.625710       1.885752       1.343930
 O       1.899590      -0.567918      -0.420640
 H       2.368840       0.216462      -0.744180
 O      -1.955860       0.171622       0.501610
 H      -2.178280       1.114882       0.471520
 N      -0.457330      -1.649588      -1.051620
 H       0.434920      -1.852938      -1.514010
 N       0.054020      -1.171608       1.631150
 H       0.841680      -0.926478       2.230180
 H      -0.833480      -0.931518       2.085060
 H      -1.182180      -1.452478      -1.740900
 C      -0.854650      -2.667778      -0.051610
 C       0.106470      -2.563238       1.126090
 H      -0.151880      -3.280998       1.905550
 H       1.131020      -2.733248       0.796320
 H      -1.867360      -2.414598       0.260820
 H      -0.842070      -3.671788      -0.477390
 O       3.724162       0.889639       0.261052
 H       3.555912      -0.022741       0.009362
 H       4.299882       0.814259       1.027192
 O      -1.894668      -2.995031       1.537842
 H      -1.840788      -2.392991       0.790342
 H      -2.507748      -3.673971       1.242412
 O      -0.087248      -3.697601      -1.302908
 H       0.634652      -4.294611      -1.087188
 H       0.356392      -2.888421      -1.572258
 O       2.002992       3.388249      -1.401698
 H       2.211802       2.877289      -0.614648
 H       1.045242       3.467199      -1.377048
 O      -0.753098       3.799249      -1.755508
 H      -1.018868       4.520689      -1.178448
 H      -0.581508       4.229878      -2.597658
 O      -2.797268      -1.666511      -2.897058
 H      -2.692278      -1.467901      -1.962368
 H      -3.147118      -0.851271      -3.267358
 O      -3.319408       1.026229      -2.526268
 H      -3.074908       1.399669      -3.377658
 H      -4.166208       1.436729      -2.329888
 O       1.393352       2.923439       3.119452
 H       1.299242       2.408909       2.312892
 H       1.960042       2.379859       3.674002
 O       2.920082       0.174949       3.662072
 H       2.412062      -0.393911       3.076902
 H       3.080962      -0.374661       4.434182
 O      -0.318868      -0.005011      -5.059128
 H       0.027172       0.327499      -4.226178
 H      -1.140458       0.480049      -5.176688
 O       0.317452      -4.478022       2.492182
 H       0.746442      -3.676111       2.803702
 H      -0.273748      -4.168461       1.800252
 O       0.078022      -2.886271      -4.174178
 H      -0.408038      -3.245831      -4.921568
 H      -0.201858      -1.967301      -4.138658

C O Cl N H 0
6-31g(d,p)
 ****
Pt 0
lanl2dz
****

Pt 0
lanl2dz

Pt 1.72

