%nprocshared=40
%mem=12000MB
%chk=scic0Pt001_in0000640.chk
%rwf=/
#p opt

Title Card Required

0 1
 Pt       0.008530       0.058172      -0.012010
 Cl      -0.169650       1.312792      -2.000420
 Cl       0.625710       1.885752       1.343930
 O       1.899590      -0.567918      -0.420640
 H       2.368840       0.216462      -0.744180
 O      -1.955860       0.171622       0.501610
 H      -2.178280       1.114882       0.471520
 N      -0.457330      -1.649588      -1.051620
 H       0.434920      -1.852938      -1.514010
 N       0.054020      -1.171608       1.631150
 H       0.841680      -0.926478       2.230180
 H      -0.833480      -0.931518       2.085060
 H      -1.182180      -1.452478      -1.740900
 C      -0.854650      -2.667778      -0.051610
 C       0.106470      -2.563238       1.126090
 H      -0.151880      -3.280998       1.905550
 H       1.131020      -2.733248       0.796320
 H      -1.867360      -2.414598       0.260820
 H      -0.842070      -3.671788      -0.477390
 O       1.170151      -3.367600       0.280952
 H       1.064481      -3.772130      -0.584668
 H       0.395951      -2.804321       0.367482
 O      -1.448709       3.230429       0.777172
 H      -1.547879       4.163770       0.569442
 H      -0.690979       2.957439       0.252352
 O       2.406421       2.295909      -2.033318
 H       3.354831       2.402560      -1.918068
 H       2.301701       1.359009      -2.221428
 O       3.111011       1.341369       2.336352
 H       3.037771       1.886669       1.548062
 H       3.326011       1.969799       3.031352
 O      -4.038399      -0.150741       1.343942
 H      -4.532699       0.256389       0.626962
 H      -4.666729      -0.762351       1.737982
 O      -0.233839      -3.480721      -2.627478
 H      -0.541789      -4.382811      -2.752018
 H      -0.751919      -2.971981      -3.257468
 O      -3.860439      -2.099621      -1.474258
 H      -4.718859      -1.680551      -1.581928
 H      -3.770009      -2.196940      -0.522178
 O      -4.405389       1.860159      -0.548618
 H      -3.681139       1.331519      -0.895158
 H      -4.070379       2.760509      -0.584428
 O       4.077371      -1.326561       2.285942
 H       4.108071      -0.378441       2.130212
 H       4.000361      -1.400161       3.241322
 O      -2.517799      -2.290730      -3.803618
 H      -2.922419      -2.187460      -2.937748
 H      -3.267629      -2.344001      -4.402818
 O      -0.111619      -0.882511      -5.118598
 H      -0.881179      -1.222211      -4.653298
 H       0.329471      -0.334261      -4.463628
 O       0.670431       3.660779      -3.572738
 H       1.290831       3.285909      -2.941308
 H       1.234501       4.092299      -4.220628

C O Cl N H 0
6-31g(d,p)
 ****
Pt 0
lanl2dz
****

Pt 0
lanl2dz

Pt 1.72

