%nprocshared=40
%mem=12000MB
%chk=scic0Pt001_in0000900.chk
%rwf=/
#p opt

Title Card Required

0 1
 Pt       0.008530       0.058172      -0.012010
 Cl      -0.169650       1.312792      -2.000420
 Cl       0.625710       1.885752       1.343930
 O       1.899590      -0.567918      -0.420640
 H       2.368840       0.216462      -0.744180
 O      -1.955860       0.171622       0.501610
 H      -2.178280       1.114882       0.471520
 N      -0.457330      -1.649588      -1.051620
 H       0.434920      -1.852938      -1.514010
 N       0.054020      -1.171608       1.631150
 H       0.841680      -0.926478       2.230180
 H      -0.833480      -0.931518       2.085060
 H      -1.182180      -1.452478      -1.740900
 C      -0.854650      -2.667778      -0.051610
 C       0.106470      -2.563238       1.126090
 H      -0.151880      -3.280998       1.905550
 H       1.131020      -2.733248       0.796320
 H      -1.867360      -2.414598       0.260820
 H      -0.842070      -3.671788      -0.477390
 O      -0.324947      -2.251372      -3.276750
 H       0.583083      -2.000782      -3.084830
 H      -0.539937      -1.748502      -4.067320
 O      -2.553127      -2.323202       2.053010
 H      -3.347097      -2.299102       1.511590
 H      -2.492667      -3.241282       2.331550
 O      -3.582687       0.748838      -2.060580
 H      -2.891527       0.180418      -1.709430
 H      -4.064747       1.034008      -1.279280
 O       2.650073      -0.673212       3.260790
 H       2.718303      -1.594342       2.994380
 H       1.730713      -0.577902       3.525010
 O       4.117573       0.321168       1.113950
 H       4.734813      -0.408182       1.008330
 H       3.647893       0.109058       1.925440
 O       0.255853       4.063518      -1.286150
 H       0.554023       4.208978      -2.188390
 H       0.883983       4.559608      -0.753740
 O       0.158443      -0.860832       4.256850
 H       0.341903      -1.795672       4.385580
 H      -0.779937      -0.782062       4.450110
 O      -1.008137      -4.109482      -1.728810
 H      -1.002307      -3.362332      -2.333660
 H      -0.967187      -3.701572      -0.859280
 O       3.771373      -1.732662      -1.989250
 H       2.926583      -1.615562      -1.545670
 H       4.193443      -0.872562      -1.910560
 O      -1.209137       2.185058      -4.056010
 H      -0.385507       2.665328      -4.178790
 H      -1.785227       2.823018      -3.625590
 O       2.416243       4.104678       0.748460
 H       2.097333       3.462908       1.389210
 H       3.037743       3.604558       0.212050
 O       4.184963       2.066388      -1.094390
 H       5.026433       1.756938      -1.441210
 H       4.066133       1.554798      -0.289230

C O Cl N H 0
6-31g(d,p)
 ****
Pt 0
lanl2dz
****

Pt 0
lanl2dz

Pt 1.72

