%nprocshared=40
%mem=12000MB
%chk=scic0Pt001_in0000060.chk
%rwf=/
#p opt

Title Card Required

0 1
 Pt       0.008530       0.058172      -0.012010
 Cl      -0.169650       1.312792      -2.000420
 Cl       0.625710       1.885752       1.343930
 O       1.899590      -0.567918      -0.420640
 H       2.368840       0.216462      -0.744180
 O      -1.955860       0.171622       0.501610
 H      -2.178280       1.114882       0.471520
 N      -0.457330      -1.649588      -1.051620
 H       0.434920      -1.852938      -1.514010
 N       0.054020      -1.171608       1.631150
 H       0.841680      -0.926478       2.230180
 H      -0.833480      -0.931518       2.085060
 H      -1.182180      -1.452478      -1.740900
 C      -0.854650      -2.667778      -0.051610
 C       0.106470      -2.563238       1.126090
 H      -0.151880      -3.280998       1.905550
 H       1.131020      -2.733248       0.796320
 H      -1.867360      -2.414598       0.260820
 H      -0.842070      -3.671788      -0.477390
 O      -3.271710      -0.155111      -2.122973
 H      -2.623700      -0.634761      -2.646563
 H      -2.910980      -0.179521      -1.232243
 O       3.097060       0.932169      -2.111703
 H       3.023560       0.190649      -2.719063
 H       3.622450       1.574990      -2.596333
 O      -3.036220       0.518649       2.656197
 H      -3.075370       1.477950       2.608117
 H      -2.849230       0.250659       1.752127
 O      -2.240870      -3.045361      -1.508773
 H      -2.861200      -3.467860      -0.908103
 H      -2.652800      -3.144450      -2.371683
 O       1.724370      -3.742950      -0.343343
 H       1.108650      -4.461630      -0.174523
 H       2.388420      -3.842860       0.344557
 O       1.925030       1.544160       3.348637
 H       2.107880       0.785029       3.909377
 H       2.762300       1.710240       2.906467
 O      -3.074990       2.762020      -0.719113
 H      -2.903390       2.323920      -1.557423
 H      -2.961400       3.695230      -0.920003
 O       2.625420      -2.111810      -2.622313
 H       2.223420      -2.521920      -1.851373
 H       3.540600      -2.403910      -2.587073
 O      -2.246250       3.225970       1.899887
 H      -1.915320       3.068320       1.011207
 H      -1.510200       3.653330       2.346757
 O       3.967710      -1.757260       1.400627
 H       3.709530      -2.594390       1.796487
 H       3.205130      -1.508760       0.870667
 O       4.448410       1.986600      -0.313283
 H       3.852350       1.571779      -0.943173
 H       3.956190       1.972780       0.512337
 O      -1.052000       1.192850       4.646167
 H      -0.545210       1.973850       4.406786
 H      -0.399540       0.607609       5.041057

C O Cl N H 0
6-31g(d,p)
 ****
Pt 0
lanl2dz
****

Pt 0
lanl2dz

Pt 1.72

