%nprocshared=40
%mem=12000MB
%chk=scic0Pt001_in0000320.chk
%rwf=/
#p opt

Title Card Required

0 1
 Pt       0.008530       0.058172      -0.012010
 Cl      -0.169650       1.312792      -2.000420
 Cl       0.625710       1.885752       1.343930
 O       1.899590      -0.567918      -0.420640
 H       2.368840       0.216462      -0.744180
 O      -1.955860       0.171622       0.501610
 H      -2.178280       1.114882       0.471520
 N      -0.457330      -1.649588      -1.051620
 H       0.434920      -1.852938      -1.514010
 N       0.054020      -1.171608       1.631150
 H       0.841680      -0.926478       2.230180
 H      -0.833480      -0.931518       2.085060
 H      -1.182180      -1.452478      -1.740900
 C      -0.854650      -2.667778      -0.051610
 C       0.106470      -2.563238       1.126090
 H      -0.151880      -3.280998       1.905550
 H       1.131020      -2.733248       0.796320
 H      -1.867360      -2.414598       0.260820
 H      -0.842070      -3.671788      -0.477390
 O       2.026120       2.598982      -2.155000
 H       1.400130       3.026972      -1.564130
 H       1.692880       2.806702      -3.032440
 O      -1.419180      -3.644668      -0.630580
 H      -1.999420      -2.904498      -0.431630
 H      -1.808570      -4.378458      -0.146760
 O      -1.461040       2.215162       2.966300
 H      -2.054600       1.503472       3.221900
 H      -1.944600       3.012642       3.199410
 O       3.696390      -0.990158      -1.914340
 H       3.734850      -1.931958      -2.103180
 H       4.533840      -0.808778      -1.478550
 O      -1.931740       2.949412      -2.485540
 H      -1.828910       2.119542      -2.959760
 H      -2.598460       3.422212      -2.991600
 O      -1.914500      -2.859778       2.716700
 H      -2.137390      -2.880378       3.651580
 H      -1.954740      -1.926118       2.491360
 O      -0.543440       4.435741       0.569880
 H      -1.257660       4.824091       0.056850
 H      -0.418530       3.569932       0.171230
 O       2.307810      -1.323608       3.869940
 H       2.075330      -2.255968       3.897700
 H       3.265450      -1.322928       3.953890
 O       2.511650      -3.717398       1.679010
 H       2.252500      -3.935308       2.578740
 H       1.906100      -3.013718       1.429460
 O      -4.307341       2.244452      -0.323680
 H      -4.183711       1.418832       0.152970
 H      -4.861331       1.998342      -1.069770
 O       2.115440      -2.511588      -3.818730
 H       2.211750      -3.144868      -3.101930
 H       2.595630      -1.738688      -3.508620
 O       1.472920      -4.531229      -1.714630
 H       0.723450      -4.524468      -1.112640
 H       2.208160      -4.812909      -1.163100

C O Cl N H 0
6-31g(d,p)
 ****
Pt 0
lanl2dz
****

Pt 0
lanl2dz

Pt 1.72

