%nprocshared=40
%mem=12000MB
%chk=scic0Pt001_in0000090.chk
%rwf=/
#p opt

Title Card Required

0 1
 Pt       0.008530       0.058172      -0.012010
 Cl      -0.169650       1.312792      -2.000420
 Cl       0.625710       1.885752       1.343930
 O       1.899590      -0.567918      -0.420640
 H       2.368840       0.216462      -0.744180
 O      -1.955860       0.171622       0.501610
 H      -2.178280       1.114882       0.471520
 N      -0.457330      -1.649588      -1.051620
 H       0.434920      -1.852938      -1.514010
 N       0.054020      -1.171608       1.631150
 H       0.841680      -0.926478       2.230180
 H      -0.833480      -0.931518       2.085060
 H      -1.182180      -1.452478      -1.740900
 C      -0.854650      -2.667778      -0.051610
 C       0.106470      -2.563238       1.126090
 H      -0.151880      -3.280998       1.905550
 H       1.131020      -2.733248       0.796320
 H      -1.867360      -2.414598       0.260820
 H      -0.842070      -3.671788      -0.477390
 O       2.823059       1.537847       2.220870
 H       3.104019       0.835787       2.814420
 H       3.643659       1.849737       1.829130
 O      -1.195971       2.365427      -3.047930
 H      -0.623801       3.127357      -2.920671
 H      -0.635241       1.617127      -2.824851
 O      -1.513801       1.816567       3.332210
 H      -1.248881       2.279727       4.131840
 H      -1.682091       2.523097       2.702450
 O      -2.104531       3.680017       1.261730
 H      -1.552601       4.338437       0.830470
 H      -2.345551       3.080377       0.550070
 O       1.141639      -4.108463      -0.906310
 H       0.956109      -4.443984      -1.787850
 H       0.612349      -4.668193      -0.331250
 O       2.974149       0.521017      -3.281950
 H       3.517239      -0.130543      -2.829561
 H       2.075189       0.215947      -3.130531
 O      -4.267501       0.148607       1.420120
 H      -3.374851       0.208337       1.068390
 H      -4.135181      -0.068893       2.347110
 O      -2.666271      -3.527623      -0.116530
 H      -2.668491      -4.483833      -0.215440
 H      -3.423011      -3.353443       0.450140
 O      -4.239211      -0.677183      -1.615790
 H      -3.979361      -0.306213      -0.767870
 H      -4.790971      -1.427853      -1.378820
 O       4.107319      -2.124003       1.338840
 H       3.371719      -1.745583       0.849120
 H       3.714529      -2.866633       1.806120
 O      -3.215181       3.247117      -1.356420
 H      -3.611521       4.094577      -1.577500
 H      -2.717321       3.013567      -2.144921
 O      -2.786591      -0.435323       3.900079
 H      -2.994271      -0.203583       4.809629
 H      -2.271051       0.312147       3.584440

C O Cl N H 0
6-31g(d,p)
 ****
Pt 0
lanl2dz
****

Pt 0
lanl2dz

Pt 1.72

