%nprocshared=40
%mem=12000MB
%chk=scic0Pt001_in0000030.chk
%rwf=/
#p opt

Title Card Required

0 1
 Pt       0.008530       0.058172      -0.012010
 Cl      -0.169650       1.312792      -2.000420
 Cl       0.625710       1.885752       1.343930
 O       1.899590      -0.567918      -0.420640
 H       2.368840       0.216462      -0.744180
 O      -1.955860       0.171622       0.501610
 H      -2.178280       1.114882       0.471520
 N      -0.457330      -1.649588      -1.051620
 H       0.434920      -1.852938      -1.514010
 N       0.054020      -1.171608       1.631150
 H       0.841680      -0.926478       2.230180
 H      -0.833480      -0.931518       2.085060
 H      -1.182180      -1.452478      -1.740900
 C      -0.854650      -2.667778      -0.051610
 C       0.106470      -2.563238       1.126090
 H      -0.151880      -3.280998       1.905550
 H       1.131020      -2.733248       0.796320
 H      -1.867360      -2.414598       0.260820
 H      -0.842070      -3.671788      -0.477390
 O       1.711933       0.121309       3.259169
 H       1.414133      -0.672801       3.711759
 H       2.080443      -0.208501       2.434819
 O       3.769823       0.688829      -0.689762
 H       4.720293       0.723089      -0.549851
 H       3.677453       0.709399      -1.646401
 O      -2.238677      -2.055371      -2.596361
 H      -2.962117      -2.687571      -2.629321
 H      -2.680407      -1.202461      -2.557132
 O       1.257253      -3.879471      -0.941961
 H       0.642423      -4.305241      -1.545961
 H       1.786753      -4.606541      -0.602661
 O      -4.080177       0.011099      -1.846881
 H      -4.439277      -0.577171      -1.176721
 H      -3.331217       0.426649      -1.410441
 O      -2.786727       0.530569       3.457839
 H      -3.683667       0.203989       3.571699
 H      -2.903367       1.470919       3.295719
 O       1.596593       3.757029      -2.101511
 H       1.394803       3.309449      -1.275031
 H       2.334633       3.256079      -2.459931
 O       3.563913      -2.076201      -2.048162
 H       4.226943      -2.452271      -1.462411
 H       2.749863      -2.132371      -1.539941
 O       3.316623      -2.021681       2.502249
 H       3.201373      -2.926021       2.807259
 H       2.836243      -1.996891       1.669919
 O      -1.709437       4.163259      -1.001451
 H      -1.304597       4.042439      -1.864961
 H      -1.958907       5.091609      -0.992451
 O      -0.964457       3.239259      -3.665161
 H      -0.084697       3.072569      -3.315331
 H      -0.815457       3.880189      -4.366002
 O       4.280143       2.218609       1.442339
 H       3.886903       1.707019       0.729769
 H       5.011983       2.676689       1.019629

C O Cl N H 0
6-31g(d,p)
 ****
Pt 0
lanl2dz
****

Pt 0
lanl2dz

Pt 1.72

