%nprocshared=40
%mem=12000MB
%chk=scic0Pt001_in0000980.chk
%rwf=/
#p opt

Title Card Required

0 1
 Pt       0.008530       0.058172      -0.012010
 Cl      -0.169650       1.312792      -2.000420
 Cl       0.625710       1.885752       1.343930
 O       1.899590      -0.567918      -0.420640
 H       2.368840       0.216462      -0.744180
 O      -1.955860       0.171622       0.501610
 H      -2.178280       1.114882       0.471520
 N      -0.457330      -1.649588      -1.051620
 H       0.434920      -1.852938      -1.514010
 N       0.054020      -1.171608       1.631150
 H       0.841680      -0.926478       2.230180
 H      -0.833480      -0.931518       2.085060
 H      -1.182180      -1.452478      -1.740900
 C      -0.854650      -2.667778      -0.051610
 C       0.106470      -2.563238       1.126090
 H      -0.151880      -3.280998       1.905550
 H       1.131020      -2.733248       0.796320
 H      -1.867360      -2.414598       0.260820
 H      -0.842070      -3.671788      -0.477390
 O      -2.399349      -1.916312       1.903472
 H      -3.225150      -1.523273       1.607252
 H      -1.938959      -2.127022       1.086282
 O      -0.826349      -0.873312      -3.648218
 H      -0.626949      -1.732602      -3.266138
 H      -1.778059      -0.896402      -3.781638
 O       0.708831      -3.899502      -0.798128
 H       0.441211      -4.085692      -1.702468
 H       1.593920      -3.535922      -0.890608
 O      -1.013790       2.614388       3.196642
 H      -0.273099       3.227148       3.191942
 H      -1.208950       2.496898       4.130562
 O       0.102751       4.391468      -0.011328
 H       0.609891       4.690137       0.748742
 H       0.429381       3.501408      -0.170168
 O      -0.255209       2.255118      -3.788048
 H       0.382521       2.772018      -4.288278
 H      -0.055019       1.346568      -4.030058
 O       3.579320       2.380838       1.310092
 H       3.700760       1.566317       1.805992
 H       3.397371       3.037657       1.988022
 O       4.272840      -1.398473       0.832252
 H       3.574020      -0.830432       1.168562
 H       3.961111      -2.286602       1.027662
 O      -3.229919      -3.075182      -1.463008
 H      -3.080950      -3.407572      -2.352628
 H      -2.443769      -2.553862      -1.277788
 O      -1.300420      -0.732482       4.545142
 H      -1.956779      -0.729652       5.247522
 H      -1.789060      -1.036713       3.775212
 O       4.476891       0.398448      -2.075338
 H       4.112270       1.244588      -2.349548
 H       3.710001      -0.179732      -2.034028
 O      -3.564290      -0.883562      -3.257608
 H      -4.369470      -0.538772      -3.653748
 H      -3.874130      -1.350423      -2.476478

C O Cl N H 0
6-31g(d,p)
 ****
Pt 0
lanl2dz
****

Pt 0
lanl2dz

Pt 1.72

