%nprocshared=40
%mem=12000MB
%chk=scic0Pt001_in0000760.chk
%rwf=/
#p opt

Title Card Required

0 1
 Pt       0.008530       0.058172      -0.012010
 Cl      -0.169650       1.312792      -2.000420
 Cl       0.625710       1.885752       1.343930
 O       1.899590      -0.567918      -0.420640
 H       2.368840       0.216462      -0.744180
 O      -1.955860       0.171622       0.501610
 H      -2.178280       1.114882       0.471520
 N      -0.457330      -1.649588      -1.051620
 H       0.434920      -1.852938      -1.514010
 N       0.054020      -1.171608       1.631150
 H       0.841680      -0.926478       2.230180
 H      -0.833480      -0.931518       2.085060
 H      -1.182180      -1.452478      -1.740900
 C      -0.854650      -2.667778      -0.051610
 C       0.106470      -2.563238       1.126090
 H      -0.151880      -3.280998       1.905550
 H       1.131020      -2.733248       0.796320
 H      -1.867360      -2.414598       0.260820
 H      -0.842070      -3.671788      -0.477390
 O      -3.271338       1.101522      -1.837899
 H      -3.735028       0.607252      -2.519709
 H      -3.754328       1.931123      -1.786779
 O       2.056322      -1.654868       3.160681
 H       1.413382      -1.590457       2.448901
 H       1.525442      -1.877967       3.930421
 O       1.717502       3.547003       1.535601
 H       2.344452       4.206583       1.225731
 H       1.841672       3.541833       2.488842
 O       3.394472       2.409593      -1.225719
 H       2.674402       1.904192      -0.838179
 H       4.102762       2.332453      -0.580349
 O      -2.972198      -2.345007       2.139881
 H      -3.764068      -2.310277       2.683801
 H      -2.264588      -2.116927       2.749321
 O      -1.045348       1.644662      -4.038488
 H      -2.004518       1.685212      -4.087978
 H      -0.876238       1.242223      -3.182009
 O      -0.395748       4.305382      -1.254589
 H       0.430822       4.601352      -1.646139
 H      -0.234368       3.380283      -1.048939
 O       2.047472       1.423002       3.744272
 H       2.172102       2.290493       4.139331
 H       1.753972       0.876163       4.478411
 O      -4.270538      -2.008807      -0.373219
 H      -4.554148      -1.197628       0.057671
 H      -3.712458      -2.434827       0.283401
 O       3.110292      -3.692877      -0.896409
 H       2.608862      -3.316487      -0.167689
 H       2.460922      -4.213398      -1.377579
 O      -0.090008      -4.749618       1.169861
 H       0.141462      -5.256448       0.386501
 H      -1.041398      -4.864848       1.245331
 O      -1.458848      -4.479698      -1.729649
 H      -1.704298      -3.567787      -1.909359
 H      -2.092748      -4.992877      -2.238518

C O Cl N H 0
6-31g(d,p)
 ****
Pt 0
lanl2dz
****

Pt 0
lanl2dz

Pt 1.72

