%nprocshared=40
%mem=12000MB
%chk=scic0Pt001_in0000050.chk
%rwf=/
#p opt

Title Card Required

0 1
 Pt       0.008530       0.058172      -0.012010
 Cl      -0.169650       1.312792      -2.000420
 Cl       0.625710       1.885752       1.343930
 O       1.899590      -0.567918      -0.420640
 H       2.368840       0.216462      -0.744180
 O      -1.955860       0.171622       0.501610
 H      -2.178280       1.114882       0.471520
 N      -0.457330      -1.649588      -1.051620
 H       0.434920      -1.852938      -1.514010
 N       0.054020      -1.171608       1.631150
 H       0.841680      -0.926478       2.230180
 H      -0.833480      -0.931518       2.085060
 H      -1.182180      -1.452478      -1.740900
 C      -0.854650      -2.667778      -0.051610
 C       0.106470      -2.563238       1.126090
 H      -0.151880      -3.280998       1.905550
 H       1.131020      -2.733248       0.796320
 H      -1.867360      -2.414598       0.260820
 H      -0.842070      -3.671788      -0.477390
 O      -1.765499       3.099036      -1.053362
 H      -1.057430       2.858986      -1.657652
 H      -1.536020       3.989316      -0.772512
 O      -2.250299       1.303447       2.856458
 H      -1.889170       2.194336       2.859748
 H      -2.296730       1.077717       1.923168
 O      -3.189140       0.320456      -2.312962
 H      -2.609190       0.846316      -2.870862
 H      -2.585200      -0.238444      -1.815962
 O       3.266581       0.965806      -1.951112
 H       2.382631       1.343567      -1.958652
 H       3.714500       1.414636      -2.673642
 O       0.268941      -3.410223      -2.199232
 H      -0.669110      -3.523844      -2.376022
 H       0.619570      -4.304594      -2.235292
 O       2.481360       0.382066       3.252148
 H       2.954031      -0.387744       3.580918
 H       3.172601       0.930686       2.870938
 O      -2.643559      -2.588704      -1.975012
 H      -3.374660      -2.238754      -1.458142
 H      -3.018790      -2.708853      -2.851862
 O       3.054350      -2.186814      -2.378272
 H       2.579320      -1.351203      -2.362312
 H       2.506250      -2.772904      -1.848912
 O       3.401960      -2.944263       1.188248
 H       2.681000      -3.579404       1.219098
 H       3.050210      -2.222844       0.659138
 O       0.586760       2.293777       4.075498
 H       0.691430       2.699867       3.210468
 H       1.402411       1.799927       4.197768
 O       0.839010      -4.556803       1.094328
 H       0.406741      -4.570123       1.952858
 H       0.385341      -5.243733       0.597908
 O       0.057370       3.900056      -2.933342
 H      -0.571250       4.438657      -3.422072
 H       0.910340       4.158457      -3.293642

C O Cl N H 0
6-31g(d,p)
 ****
Pt 0
lanl2dz
****

Pt 0
lanl2dz

Pt 1.72

