%nprocshared=40
%mem=12000MB
%chk=scic0Pt001_in0000850.chk
%rwf=/
#p opt

Title Card Required

0 1
 Pt       0.008530       0.058172      -0.012010
 Cl      -0.169650       1.312792      -2.000420
 Cl       0.625710       1.885752       1.343930
 O       1.899590      -0.567918      -0.420640
 H       2.368840       0.216462      -0.744180
 O      -1.955860       0.171622       0.501610
 H      -2.178280       1.114882       0.471520
 N      -0.457330      -1.649588      -1.051620
 H       0.434920      -1.852938      -1.514010
 N       0.054020      -1.171608       1.631150
 H       0.841680      -0.926478       2.230180
 H      -0.833480      -0.931518       2.085060
 H      -1.182180      -1.452478      -1.740900
 C      -0.854650      -2.667778      -0.051610
 C       0.106470      -2.563238       1.126090
 H      -0.151880      -3.280998       1.905550
 H       1.131020      -2.733248       0.796320
 H      -1.867360      -2.414598       0.260820
 H      -0.842070      -3.671788      -0.477390
 O      -1.899319       2.870721      -1.316651
 H      -1.812389       3.639221      -0.745721
 H      -1.013829       2.497021      -1.335381
 O       2.892761       1.830061       1.887999
 H       2.924521       2.029841       2.827790
 H       3.710721       1.351351       1.727049
 O       0.655361      -2.112969       3.311530
 H       0.147801      -2.002319       2.502700
 H       0.063381      -2.602929       3.889120
 O      -3.429589      -1.056929       2.010550
 H      -3.424429      -0.960089       2.966949
 H      -2.878589      -1.829109       1.854759
 O       1.224801      -4.096629      -0.508201
 H       1.544331      -3.251929      -0.837631
 H       0.418221      -4.248279      -1.008781
 O       0.925821       4.242471       0.349009
 H       1.850511       4.314071       0.601889
 H       0.864971       3.372721      -0.055891
 O       1.332991      -2.500449      -3.394310
 H       0.469331      -2.080709      -3.349130
 H       1.135011      -3.407169      -3.644901
 O       2.420531      -0.313319       3.786999
 H       1.927631      -1.138619       3.794699
 H       2.335471       0.013581       4.687019
 O       3.500801       2.643831      -1.138511
 H       3.764631       2.403981      -0.245781
 H       3.874941       3.520831      -1.260931
 O       1.537801       0.332891      -4.464780
 H       1.708201      -0.353319      -3.813480
 H       1.673671       1.150611      -3.977980
 O       1.920491       2.829561      -3.222620
 H       2.246001       2.705941      -2.326581
 H       2.229221       3.708431      -3.460080
 O      -4.376189       0.232001      -2.345761
 H      -4.662719       1.149351      -2.368361
 H      -4.536089      -0.036389      -1.436631

C O Cl N H 0
6-31g(d,p)
 ****
Pt 0
lanl2dz
****

Pt 0
lanl2dz

Pt 1.72

