%nprocshared=40
%mem=12000MB
%chk=scic0Pt001_in0000440.chk
%rwf=/
#p opt

Title Card Required

0 1
 Pt       0.008530       0.058172      -0.012010
 Cl      -0.169650       1.312792      -2.000420
 Cl       0.625710       1.885752       1.343930
 O       1.899590      -0.567918      -0.420640
 H       2.368840       0.216462      -0.744180
 O      -1.955860       0.171622       0.501610
 H      -2.178280       1.114882       0.471520
 N      -0.457330      -1.649588      -1.051620
 H       0.434920      -1.852938      -1.514010
 N       0.054020      -1.171608       1.631150
 H       0.841680      -0.926478       2.230180
 H      -0.833480      -0.931518       2.085060
 H      -1.182180      -1.452478      -1.740900
 C      -0.854650      -2.667778      -0.051610
 C       0.106470      -2.563238       1.126090
 H      -0.151880      -3.280998       1.905550
 H       1.131020      -2.733248       0.796320
 H      -1.867360      -2.414598       0.260820
 H      -0.842070      -3.671788      -0.477390
 O       4.006223      -0.103738      -0.694850
 H       4.593553       0.069142      -1.435980
 H       3.697953       0.769622      -0.437340
 O       0.503023       2.905962       2.801700
 H       1.013733       3.201402       3.560670
 H       0.878323       3.398462       2.066360
 O       2.678513      -0.759118      -3.215780
 H       2.927253      -0.249578      -3.992060
 H       2.502613      -0.089998      -2.548350
 O      -1.371977      -4.079698      -0.037980
 H      -1.289377      -3.171868       0.267200
 H      -0.462747      -4.386518      -0.095310
 O       2.433013       3.641692       0.448130
 H       3.061033       3.405352       1.136500
 H       2.173163       2.795292       0.073650
 O      -0.303237      -1.319718       4.186709
 H      -0.816087      -1.697288       4.906809
 H       0.555243      -1.744508       4.268559
 O       1.048503       3.455512      -2.557690
 H       1.989793       3.466572      -2.752630
 H       0.634393       3.572072      -3.417360
 O       1.593393      -3.251418      -2.830810
 H       1.727163      -2.392358      -3.241010
 H       0.647533      -3.401288      -2.914570
 O      -3.035387       1.379612      -3.256450
 H      -2.714277       1.390712      -2.350420
 H      -2.767237       2.234122      -3.605800
 O      -0.156967       4.733332      -0.239910
 H      -0.065947       4.400632      -1.137210
 H       0.735693       4.687442       0.113890
 O      -4.010077      -2.098948       1.377120
 H      -4.627437      -2.654418       0.892910
 H      -3.794647      -2.619578       2.156000
 O      -4.000857      -1.397418      -2.397700
 H      -4.767567      -1.219618      -1.845740
 H      -3.643717      -0.524378      -2.583110

C O Cl N H 0
6-31g(d,p)
 ****
Pt 0
lanl2dz
****

Pt 0
lanl2dz

Pt 1.72

