%nprocshared=40
%mem=12000MB
%chk=scic0Pt001_in0000370.chk
%rwf=/
#p opt

Title Card Required

0 1
 Pt       0.008530       0.058172      -0.012010
 Cl      -0.169650       1.312792      -2.000420
 Cl       0.625710       1.885752       1.343930
 O       1.899590      -0.567918      -0.420640
 H       2.368840       0.216462      -0.744180
 O      -1.955860       0.171622       0.501610
 H      -2.178280       1.114882       0.471520
 N      -0.457330      -1.649588      -1.051620
 H       0.434920      -1.852938      -1.514010
 N       0.054020      -1.171608       1.631150
 H       0.841680      -0.926478       2.230180
 H      -0.833480      -0.931518       2.085060
 H      -1.182180      -1.452478      -1.740900
 C      -0.854650      -2.667778      -0.051610
 C       0.106470      -2.563238       1.126090
 H      -0.151880      -3.280998       1.905550
 H       1.131020      -2.733248       0.796320
 H      -1.867360      -2.414598       0.260820
 H      -0.842070      -3.671788      -0.477390
 O      -2.422247       1.289559       2.232208
 H      -1.892477       1.364449       1.433547
 H      -2.497627       2.195849       2.543818
 O       0.062103      -3.150361      -2.481562
 H       0.516393      -2.303321      -2.465362
 H      -0.500087      -3.094791      -3.259352
 O       1.131843       3.453419      -1.754073
 H       0.368803       3.288929      -2.315172
 H       1.881783       3.310099      -2.338152
 O      -1.862897      -1.867061       3.170888
 H      -1.938137      -2.718831       2.731608
 H      -2.668307      -1.406631       2.918998
 O       3.257213      -2.155231      -1.643563
 H       4.140274      -2.045561      -1.279842
 H       2.686453      -1.741321      -0.990083
 O      -3.246837       2.007479      -1.928943
 H      -3.178247       1.822589      -2.869823
 H      -3.408517       2.954389      -1.891992
 O       1.592993      -1.672581       3.617578
 H       1.702843      -1.381951       4.527297
 H       1.284403      -2.579141       3.701618
 O       4.077523       1.045449      -1.127162
 H       4.266483       0.977029      -2.067232
 H       4.946444       1.121739      -0.723053
 O       1.378013       4.159969       1.114347
 H       0.885063       3.878839       0.338398
 H       2.259483       4.337999       0.774588
 O      -1.802637      -4.544811      -0.979762
 H      -1.748517      -4.243371      -0.068502
 H      -1.072687      -4.094911      -1.414392
 O      -2.953837      -1.307821      -3.956082
 H      -2.515497      -0.865801      -4.688612
 H      -2.776867      -0.736221      -3.203692
 O      -1.831686       4.829709       0.356687
 H      -1.051136       4.278639       0.462678
 H      -1.885617       4.971669      -0.592543

C O Cl N H 0
6-31g(d,p)
 ****
Pt 0
lanl2dz
****

Pt 0
lanl2dz

Pt 1.72

