%nprocshared=40
%mem=12000MB
%chk=scic0Pt001_in0000680.chk
%rwf=/
#p opt

Title Card Required

0 1
 Pt       0.008530       0.058172      -0.012010
 Cl      -0.169650       1.312792      -2.000420
 Cl       0.625710       1.885752       1.343930
 O       1.899590      -0.567918      -0.420640
 H       2.368840       0.216462      -0.744180
 O      -1.955860       0.171622       0.501610
 H      -2.178280       1.114882       0.471520
 N      -0.457330      -1.649588      -1.051620
 H       0.434920      -1.852938      -1.514010
 N       0.054020      -1.171608       1.631150
 H       0.841680      -0.926478       2.230180
 H      -0.833480      -0.931518       2.085060
 H      -1.182180      -1.452478      -1.740900
 C      -0.854650      -2.667778      -0.051610
 C       0.106470      -2.563238       1.126090
 H      -0.151880      -3.280998       1.905550
 H       1.131020      -2.733248       0.796320
 H      -1.867360      -2.414598       0.260820
 H      -0.842070      -3.671788      -0.477390
 O      -2.662932       0.525612       2.721040
 H      -2.700682      -0.385108       2.415550
 H      -3.421342       0.603222       3.306640
 O      -0.903842       3.768262       0.138180
 H       0.020838       4.012592       0.235260
 H      -1.150862       4.137542      -0.714310
 O      -0.648652      -3.734418       1.910310
 H      -0.379812      -2.871628       1.582550
 H      -1.587362      -3.629998       2.089250
 O      -0.254002      -0.168938      -4.288411
 H       0.300078       0.120482      -3.558090
 H      -1.076532      -0.428598      -3.863990
 O       1.315208       2.180332      -3.350290
 H       2.014668       2.750382      -3.018730
 H       1.363258       2.288672      -4.304260
 O       3.847918       1.184642       1.344670
 H       4.232488       2.000662       1.012510
 H       4.600088       0.591052       1.422380
 O       2.208678       3.820642      -0.108930
 H       1.937768       2.900202      -0.168530
 H       2.896938       3.901232      -0.775210
 O      -2.347742      -3.584148      -0.749140
 H      -2.104872      -4.511248      -0.674040
 H      -3.226922      -3.544818      -0.362320
 O       2.888378      -2.317758       2.754740
 H       2.844928      -3.278088       2.753880
 H       2.658868      -2.078138       3.656970
 O      -3.848682      -1.885528      -2.238840
 H      -2.957352      -1.782188      -1.893910
 H      -4.315062      -2.346638      -1.535990
 O      -4.759652       1.678972       0.805420
 H      -5.354682       0.987882       0.501420
 H      -4.050422       1.196892       1.239860
 O      -1.423902       2.776572      -4.211451
 H      -0.493662       2.600072      -4.045260
 H      -1.660942       3.416472      -3.534340

C O Cl N H 0
6-31g(d,p)
 ****
Pt 0
lanl2dz
****

Pt 0
lanl2dz

Pt 1.72

