%nprocshared=40
%mem=12000MB
%chk=scic0Pt001_in0000160.chk
%rwf=/
#p opt

Title Card Required

0 1
 Pt       0.008530       0.058172      -0.012010
 Cl      -0.169650       1.312792      -2.000420
 Cl       0.625710       1.885752       1.343930
 O       1.899590      -0.567918      -0.420640
 H       2.368840       0.216462      -0.744180
 O      -1.955860       0.171622       0.501610
 H      -2.178280       1.114882       0.471520
 N      -0.457330      -1.649588      -1.051620
 H       0.434920      -1.852938      -1.514010
 N       0.054020      -1.171608       1.631150
 H       0.841680      -0.926478       2.230180
 H      -0.833480      -0.931518       2.085060
 H      -1.182180      -1.452478      -1.740900
 C      -0.854650      -2.667778      -0.051610
 C       0.106470      -2.563238       1.126090
 H      -0.151880      -3.280998       1.905550
 H       1.131020      -2.733248       0.796320
 H      -1.867360      -2.414598       0.260820
 H      -0.842070      -3.671788      -0.477390
 O       3.338669       0.531402       1.091099
 H       4.237599       0.843012       0.953399
 H       2.981419       0.459852       0.201509
 O      -0.349551      -2.101308       3.252349
 H      -0.634371      -1.720798       4.087939
 H      -0.953861      -1.720918       2.608749
 O       2.125429      -1.578788      -3.049521
 H       3.044549      -1.430448      -3.288961
 H       1.852159      -0.744108      -2.658651
 O      -2.073271      -2.564898      -2.294322
 H      -2.179521      -3.499698      -2.491741
 H      -2.400231      -2.124648      -3.083881
 O      -3.345051      -2.613258       0.387239
 H      -2.462781      -2.408848       0.709629
 H      -3.231341      -2.683288      -0.564752
 O       1.958139       0.362192       3.948409
 H       2.328409      -0.292388       4.547189
 H       2.623279       1.055882       3.926469
 O       0.583859       1.152582      -4.429751
 H      -0.223511       1.674322      -4.436972
 H       1.161199       1.630862      -3.828051
 O      -4.369901      -0.784768       2.248749
 H      -4.217911      -1.455099       1.576699
 H      -4.360601      -1.279418       3.072978
 O       2.181859       3.160602      -3.339331
 H       1.973609       3.920232      -2.788211
 H       3.134589       3.067292      -3.251581
 O      -1.411271      -1.259148      -4.726141
 H      -1.270381      -2.090018      -5.188682
 H      -0.685621      -0.703898      -5.024901
 O      -1.720761       4.775102      -0.989031
 H      -0.971361       4.180411      -1.083321
 H      -1.821561       5.158432      -1.864831
 O      -4.293451       3.063182      -0.293781
 H      -4.752471       2.428362      -0.850941
 H      -3.591031       3.398502      -0.857992

C O Cl N H 0
6-31g(d,p)
 ****
Pt 0
lanl2dz
****

Pt 0
lanl2dz

Pt 1.72

