%nprocshared=40
%mem=12000MB
%chk=scic0Pt001_in0000040.chk
%rwf=/
#p opt

Title Card Required

0 1
 Pt       0.008530       0.058172      -0.012010
 Cl      -0.169650       1.312792      -2.000420
 Cl       0.625710       1.885752       1.343930
 O       1.899590      -0.567918      -0.420640
 H       2.368840       0.216462      -0.744180
 O      -1.955860       0.171622       0.501610
 H      -2.178280       1.114882       0.471520
 N      -0.457330      -1.649588      -1.051620
 H       0.434920      -1.852938      -1.514010
 N       0.054020      -1.171608       1.631150
 H       0.841680      -0.926478       2.230180
 H      -0.833480      -0.931518       2.085060
 H      -1.182180      -1.452478      -1.740900
 C      -0.854650      -2.667778      -0.051610
 C       0.106470      -2.563238       1.126090
 H      -0.151880      -3.280998       1.905550
 H       1.131020      -2.733248       0.796320
 H      -1.867360      -2.414598       0.260820
 H      -0.842070      -3.671788      -0.477390
 O      -2.704538       0.880390       2.479508
 H      -2.714008       0.710620       1.533348
 H      -2.961668       1.804010       2.549858
 O      -2.048488       2.934610      -1.143052
 H      -1.204068       3.226770      -0.788452
 H      -2.085848       3.342140      -2.012912
 O       1.982882       0.543620       3.307698
 H       2.499122       0.043980       3.946438
 H       2.638282       0.860050       2.679648
 O      -2.184498      -2.325030      -2.600172
 H      -2.315148      -3.000530      -3.271552
 H      -1.870868      -1.564430      -3.097402
 O      -3.630158       0.727740      -2.260592
 H      -3.224338       1.519680      -2.624262
 H      -3.181448       0.605150      -1.419322
 O       3.923272       0.550180      -1.818542
 H       4.608902       0.107440      -2.326512
 H       3.124232       0.400480      -2.331612
 O       0.666842      -4.275990      -1.271722
 H       0.046812      -4.982190      -1.474072
 H       1.053112      -4.542680      -0.432792
 O       4.308492       1.089510       1.239308
 H       4.972742       0.409780       1.383708
 H       4.026192       0.945840       0.331678
 O       3.484342      -2.887590       1.447948
 H       3.305092      -3.425760       2.224088
 H       2.610232      -2.671830       1.111028
 O       0.004552       3.326970       3.447398
 H      -0.327168       4.122740       3.022138
 H       0.065252       2.690840       2.729228
 O      -3.224508       3.492060       1.782948
 H      -3.740538       3.901940       1.083078
 H      -2.430628       4.032150       1.829578
 O       4.004422      -2.904840      -1.563322
 H       4.951392      -3.066310      -1.526882
 H       3.833262      -2.365050      -0.786502

C O Cl N H 0
6-31g(d,p)
 ****
Pt 0
lanl2dz
****

Pt 0
lanl2dz

Pt 1.72

