%nprocshared=40
%mem=12000MB
%chk=scic0Pt001_in0000410.chk
%rwf=/
#p opt

Title Card Required

0 1
 Pt       0.008530       0.058172      -0.012010
 Cl      -0.169650       1.312792      -2.000420
 Cl       0.625710       1.885752       1.343930
 O       1.899590      -0.567918      -0.420640
 H       2.368840       0.216462      -0.744180
 O      -1.955860       0.171622       0.501610
 H      -2.178280       1.114882       0.471520
 N      -0.457330      -1.649588      -1.051620
 H       0.434920      -1.852938      -1.514010
 N       0.054020      -1.171608       1.631150
 H       0.841680      -0.926478       2.230180
 H      -0.833480      -0.931518       2.085060
 H      -1.182180      -1.452478      -1.740900
 C      -0.854650      -2.667778      -0.051610
 C       0.106470      -2.563238       1.126090
 H      -0.151880      -3.280998       1.905550
 H       1.131020      -2.733248       0.796320
 H      -1.867360      -2.414598       0.260820
 H      -0.842070      -3.671788      -0.477390
 O      -0.181248       3.231142       1.075978
 H       0.056222       2.749472       0.278648
 H      -0.104548       4.154122       0.818328
 O      -1.521838      -1.108828       3.305138
 H      -1.297388      -1.436018       2.429528
 H      -2.089848      -1.794268       3.667998
 O      -0.505948      -4.036988      -0.364192
 H      -0.932998      -4.799037       0.037108
 H      -0.739698      -3.309148       0.218688
 O      -3.408368      -0.847008      -2.634862
 H      -2.695368      -0.202818      -2.607752
 H      -3.459358      -1.171518      -1.731402
 O       1.680712       2.468692      -3.137012
 H       1.758602       1.903382      -3.910612
 H       2.547442       2.414722      -2.724732
 O      -3.508128       1.097902       2.291518
 H      -3.039398       1.287902       3.109028
 H      -3.932568       0.252212       2.461168
 O       2.449062      -3.629188      -0.348912
 H       2.858222      -4.153108       0.345498
 H       1.579872      -4.026048      -0.454352
 O       4.148431      -1.243818      -1.401282
 H       3.802072      -2.072478      -1.058452
 H       5.041731      -1.465398      -1.678842
 O       4.394331       0.975732       0.945408
 H       4.539842       0.494452       0.126048
 H       4.797991       0.416592       1.615148
 O      -4.003119      -2.308818      -0.133052
 H      -4.352319      -3.085988      -0.578222
 H      -4.630518      -2.149788       0.577748
 O       2.711822       3.939802       0.320898
 H       2.439092       3.028082       0.456958
 H       2.320722       4.172752      -0.525812
 O      -0.864538       0.414492      -4.895201
 H      -0.394718      -0.037278      -4.188581
 H      -0.724998       1.346382      -4.704842

C O Cl N H 0
6-31g(d,p)
 ****
Pt 0
lanl2dz
****

Pt 0
lanl2dz

Pt 1.72

