%nprocshared=40
%mem=12000MB
%chk=scic0Pt001_in0000570.chk
%rwf=/
#p opt

Title Card Required

0 1
 Pt       0.008530       0.058172      -0.012010
 Cl      -0.169650       1.312792      -2.000420
 Cl       0.625710       1.885752       1.343930
 O       1.899590      -0.567918      -0.420640
 H       2.368840       0.216462      -0.744180
 O      -1.955860       0.171622       0.501610
 H      -2.178280       1.114882       0.471520
 N      -0.457330      -1.649588      -1.051620
 H       0.434920      -1.852938      -1.514010
 N       0.054020      -1.171608       1.631150
 H       0.841680      -0.926478       2.230180
 H      -0.833480      -0.931518       2.085060
 H      -1.182180      -1.452478      -1.740900
 C      -0.854650      -2.667778      -0.051610
 C       0.106470      -2.563238       1.126090
 H      -0.151880      -3.280998       1.905550
 H       1.131020      -2.733248       0.796320
 H      -1.867360      -2.414598       0.260820
 H      -0.842070      -3.671788      -0.477390
 O       2.569533       0.451973       2.865641
 H       2.742013       0.940663       3.675311
 H       1.736503       0.814552       2.551391
 O       0.236083       0.175453      -3.884289
 H       0.386173      -0.319247      -4.694769
 H       1.085563       0.589002      -3.706819
 O      -2.628447      -1.273337      -2.785339
 H      -2.313947      -0.407717      -2.509809
 H      -2.515857      -1.818867      -2.001859
 O       3.476803      -2.100307       0.137421
 H       3.913713      -2.863237      -0.251379
 H       4.191003      -1.471678       0.274701
 O       0.055873       4.265672       0.023421
 H       0.656783       3.907843       0.682961
 H      -0.815187       4.026702       0.352441
 O      -3.704697       0.073613       2.025751
 H      -3.509967      -0.430527       2.820781
 H      -4.507257       0.553513       2.248731
 O      -3.103787      -2.832177      -0.643629
 H      -2.944087      -3.779897      -0.664749
 H      -3.942247      -2.750667      -0.180499
 O       1.676763       3.526313       1.943201
 H       2.489023       3.145523       1.597741
 H       1.953873       4.375702       2.297971
 O      -2.931767       3.189393       1.013031
 H      -2.774427       2.918923       1.921981
 H      -3.374127       2.431283       0.620951
 O       0.579903      -3.366217      -3.014219
 H       1.520753      -3.276167      -3.189779
 H       0.413473      -2.724237      -2.318299
 O      -2.250227       2.405283       3.584581
 H      -2.509007       2.355203       4.509071
 H      -1.774307       1.583683       3.434321
 O      -0.081267       0.286783       4.946961
 H      -0.840927      -0.251827       4.708301
 H      -0.392647       0.804902       5.694441

C O Cl N H 0
6-31g(d,p)
 ****
Pt 0
lanl2dz
****

Pt 0
lanl2dz

Pt 1.72

