%nprocshared=40
%mem=12000MB
%chk=scic0Pt001_in0000660.chk
%rwf=/
#p opt

Title Card Required

0 1
 Pt       0.008530       0.058172      -0.012010
 Cl      -0.169650       1.312792      -2.000420
 Cl       0.625710       1.885752       1.343930
 O       1.899590      -0.567918      -0.420640
 H       2.368840       0.216462      -0.744180
 O      -1.955860       0.171622       0.501610
 H      -2.178280       1.114882       0.471520
 N      -0.457330      -1.649588      -1.051620
 H       0.434920      -1.852938      -1.514010
 N       0.054020      -1.171608       1.631150
 H       0.841680      -0.926478       2.230180
 H      -0.833480      -0.931518       2.085060
 H      -1.182180      -1.452478      -1.740900
 C      -0.854650      -2.667778      -0.051610
 C       0.106470      -2.563238       1.126090
 H      -0.151880      -3.280998       1.905550
 H       1.131020      -2.733248       0.796320
 H      -1.867360      -2.414598       0.260820
 H      -0.842070      -3.671788      -0.477390
 O       2.511419      -2.917470       1.395898
 H       3.283869      -3.487710       1.443518
 H       1.775349      -3.532449       1.331608
 O      -1.923961       3.499400       1.179258
 H      -1.882351       3.729260       0.246768
 H      -2.416361       4.225040       1.573068
 O      -0.121491      -3.443170       2.500348
 H      -0.291721      -2.681900       1.938548
 H      -0.847591      -4.041430       2.302928
 O       2.354559       1.837320      -3.045372
 H       2.776409       2.700110      -3.003292
 H       3.061819       1.224690      -2.824942
 O       4.290219       0.340010       0.396108
 H       4.028129       1.153970      -0.043102
 H       4.371339       0.593221       1.319938
 O      -0.342701       2.592790      -3.764732
 H      -0.831721       2.422281      -2.954852
 H       0.576889       2.491291      -3.503632
 O      -4.278421       1.559191       0.801458
 H      -4.454971       0.658281       1.086518
 H      -3.784741       1.939310       1.533538
 O      -1.634291      -3.296890      -2.918332
 H      -0.800541      -3.550479      -2.512562
 H      -2.298171      -3.651900      -2.320542
 O       1.909339       4.314590       0.400028
 H       1.446279       3.473240       0.357038
 H       2.812269       4.092690       0.155908
 O      -3.289711       0.700041       3.415108
 H      -4.033771       1.094931       3.878358
 H      -2.950021       0.050701       4.037288
 O      -1.882691       0.190321      -4.758372
 H      -2.230431       0.206121      -3.862302
 H      -0.946401       0.376361      -4.644862
 O       3.578099      -3.461960      -1.234962
 H       3.364509      -4.057040      -1.959082
 H       2.777979      -2.941250      -1.121782

C O Cl N H 0
6-31g(d,p)
 ****
Pt 0
lanl2dz
****

Pt 0
lanl2dz

Pt 1.72

