%nprocshared=40
%mem=12000MB
%chk=scic0Pt001_in0000240.chk
%rwf=/
#p opt

Title Card Required

0 1
 Pt       0.008530       0.058172      -0.012010
 Cl      -0.169650       1.312792      -2.000420
 Cl       0.625710       1.885752       1.343930
 O       1.899590      -0.567918      -0.420640
 H       2.368840       0.216462      -0.744180
 O      -1.955860       0.171622       0.501610
 H      -2.178280       1.114882       0.471520
 N      -0.457330      -1.649588      -1.051620
 H       0.434920      -1.852938      -1.514010
 N       0.054020      -1.171608       1.631150
 H       0.841680      -0.926478       2.230180
 H      -0.833480      -0.931518       2.085060
 H      -1.182180      -1.452478      -1.740900
 C      -0.854650      -2.667778      -0.051610
 C       0.106470      -2.563238       1.126090
 H      -0.151880      -3.280998       1.905550
 H       1.131020      -2.733248       0.796320
 H      -1.867360      -2.414598       0.260820
 H      -0.842070      -3.671788      -0.477390
 O       1.774540       2.206640       2.063367
 H       2.681080       1.890080       2.017607
 H       1.409190       1.982670       1.202837
 O      -0.421190      -3.712470      -1.897043
 H      -1.223580      -4.183609      -1.655532
 H      -0.304650      -3.077100      -1.185133
 O       0.872890       1.830900      -3.615543
 H       0.788010       1.934101      -4.567533
 H       1.774990       2.108950      -3.433773
 O       1.963240      -3.468600       1.596367
 H       1.132850      -3.783060       1.228017
 H       1.846210      -3.568530       2.545287
 O      -2.542170      -2.629620       2.268317
 H      -3.233310      -2.917799       2.871137
 H      -2.429490      -1.697890       2.476407
 O      -0.740420      -1.227440      -4.134052
 H      -0.297860      -0.839100      -4.893962
 H      -0.518270      -2.161000      -4.191022
 O       1.373130       4.403690      -1.240342
 H       1.786540       3.544281      -1.361423
 H       1.126050       4.667400      -2.131143
 O       4.044080       0.929100       2.473177
 H       4.953940       1.226130       2.383617
 H       4.115890       0.120580       2.988197
 O      -2.081710       1.547261      -4.277992
 H      -1.250210       1.508811      -3.797093
 H      -2.217870       0.642950      -4.574282
 O      -3.228450       2.996800       2.274977
 H      -3.122130       3.301760       1.369547
 H      -2.828400       3.694870       2.801077
 O      -3.610660      -3.420769       0.037527
 H      -4.495690      -3.606250       0.363767
 H      -3.096840      -3.275429       0.836887
 O      -2.428510       3.782721      -2.348833
 H      -2.188800       4.048470      -3.241043
 H      -2.048280       2.904201      -2.260733

C O Cl N H 0
6-31g(d,p)
 ****
Pt 0
lanl2dz
****

Pt 0
lanl2dz

Pt 1.72

