%nprocshared=40
%mem=12000MB
%chk=scic0Pt001_in0000450.chk
%rwf=/
#p opt

Title Card Required

0 1
 Pt       0.008530       0.058172      -0.012010
 Cl      -0.169650       1.312792      -2.000420
 Cl       0.625710       1.885752       1.343930
 O       1.899590      -0.567918      -0.420640
 H       2.368840       0.216462      -0.744180
 O      -1.955860       0.171622       0.501610
 H      -2.178280       1.114882       0.471520
 N      -0.457330      -1.649588      -1.051620
 H       0.434920      -1.852938      -1.514010
 N       0.054020      -1.171608       1.631150
 H       0.841680      -0.926478       2.230180
 H      -0.833480      -0.931518       2.085060
 H      -1.182180      -1.452478      -1.740900
 C      -0.854650      -2.667778      -0.051610
 C       0.106470      -2.563238       1.126090
 H      -0.151880      -3.280998       1.905550
 H       1.131020      -2.733248       0.796320
 H      -1.867360      -2.414598       0.260820
 H      -0.842070      -3.671788      -0.477390
 O       0.949572       3.509948      -1.579770
 H       1.859342       3.490518      -1.889720
 H       0.571352       2.696888      -1.926180
 O       1.225522       1.421628       3.552939
 H       1.910272       1.324968       4.220709
 H       1.499442       2.195858       3.053289
 O      -0.653428      -2.503372       3.188149
 H      -0.741478      -2.149022       4.077429
 H      -0.998258      -3.397672       3.261899
 O       3.307142       0.036098      -2.616540
 H       4.063222      -0.423852      -2.241170
 H       3.497182       0.963798      -2.451120
 O       0.750362      -2.971912      -2.890540
 H       1.093002      -3.694572      -3.423900
 H       0.479712      -3.398242      -2.072551
 O       2.400412       3.493048       1.438010
 H       3.334672       3.292658       1.543560
 H       2.049662       2.721398       0.984490
 O      -3.938008      -2.193542      -1.107340
 H      -3.091438      -2.644872      -1.046130
 H      -4.570758      -2.849402      -0.801410
 O      -2.167268      -2.086292      -3.669600
 H      -2.864498      -1.650232      -3.171751
 H      -1.439478      -2.143352      -3.044151
 O      -2.450898      -4.045053       1.041630
 H      -2.858968      -4.071542       1.911630
 H      -2.020918      -3.185652       1.015519
 O      -4.353628       0.049318      -2.294060
 H      -4.167088       0.656528      -1.572510
 H      -4.298748      -0.818482      -1.884130
 O       1.687802       0.396398      -4.721331
 H       0.983732      -0.222652      -4.508760
 H       2.290382       0.323918      -3.975841
 O      -0.756078       5.015218       0.238159
 H      -0.855048       5.033468      -0.717870
 H       0.077102       4.555387       0.374229

C O Cl N H 0
6-31g(d,p)
 ****
Pt 0
lanl2dz
****

Pt 0
lanl2dz

Pt 1.72

