%nprocshared=40
%mem=12000MB
%chk=scic0Pt001_in0000600.chk
%rwf=/
#p opt

Title Card Required

0 1
 Pt       0.008530       0.058172      -0.012010
 Cl      -0.169650       1.312792      -2.000420
 Cl       0.625710       1.885752       1.343930
 O       1.899590      -0.567918      -0.420640
 H       2.368840       0.216462      -0.744180
 O      -1.955860       0.171622       0.501610
 H      -2.178280       1.114882       0.471520
 N      -0.457330      -1.649588      -1.051620
 H       0.434920      -1.852938      -1.514010
 N       0.054020      -1.171608       1.631150
 H       0.841680      -0.926478       2.230180
 H      -0.833480      -0.931518       2.085060
 H      -1.182180      -1.452478      -1.740900
 C      -0.854650      -2.667778      -0.051610
 C       0.106470      -2.563238       1.126090
 H      -0.151880      -3.280998       1.905550
 H       1.131020      -2.733248       0.796320
 H      -1.867360      -2.414598       0.260820
 H      -0.842070      -3.671788      -0.477390
 O      -2.446417       3.154107       0.371877
 H      -3.271157       3.613667       0.190987
 H      -1.898647       3.355787      -0.391892
 O       2.345013       2.975307      -1.472823
 H       2.643723       3.882767      -1.579563
 H       1.714073       2.855417      -2.188112
 O      -3.236827      -2.573453       0.455667
 H      -2.430297      -2.213953       0.075678
 H      -3.477787      -3.283403      -0.146032
 O       2.727293       0.272537       3.202168
 H       3.444593      -0.319403       3.445478
 H       2.987813       0.606777       2.339278
 O       2.048633      -3.000053       2.138158
 H       2.732483      -2.935343       2.810678
 H       1.590544      -3.817133       2.354078
 O      -0.476807       3.911667       2.159608
 H      -0.103717       3.254157       1.565817
 H      -1.420857       3.871797       1.982667
 O      -0.898907       4.270237      -1.833192
 H      -0.025457       3.946187      -2.070242
 H      -1.140827       4.838677      -2.569702
 O       0.063963      -4.540213      -1.644603
 H      -0.121527      -4.421563      -0.708833
 H      -0.764247      -4.308643      -2.074232
 O       4.170883       2.137917       1.080737
 H       3.704373       2.096777       0.241207
 H       5.092144       2.008977       0.838278
 O       2.456273      -1.863183      -3.785092
 H       3.327503      -1.554553      -4.049342
 H       2.422423      -1.676553      -2.842672
 O       2.798653      -4.059833      -0.244663
 H       2.258913      -3.608183      -0.899503
 H       2.532703      -3.659643       0.587958
 O      -4.888327      -0.280163       0.225117
 H      -4.947837       0.524247       0.748128
 H      -4.808887      -0.976653       0.882948

C O Cl N H 0
6-31g(d,p)
 ****
Pt 0
lanl2dz
****

Pt 0
lanl2dz

Pt 1.72

