%nprocshared=40
%mem=12000MB
%chk=scic0Pt001_in0000070.chk
%rwf=/
#p opt

Title Card Required

0 1
 Pt       0.008530       0.058172      -0.012010
 Cl      -0.169650       1.312792      -2.000420
 Cl       0.625710       1.885752       1.343930
 O       1.899590      -0.567918      -0.420640
 H       2.368840       0.216462      -0.744180
 O      -1.955860       0.171622       0.501610
 H      -2.178280       1.114882       0.471520
 N      -0.457330      -1.649588      -1.051620
 H       0.434920      -1.852938      -1.514010
 N       0.054020      -1.171608       1.631150
 H       0.841680      -0.926478       2.230180
 H      -0.833480      -0.931518       2.085060
 H      -1.182180      -1.452478      -1.740900
 C      -0.854650      -2.667778      -0.051610
 C       0.106470      -2.563238       1.126090
 H      -0.151880      -3.280998       1.905550
 H       1.131020      -2.733248       0.796320
 H      -1.867360      -2.414598       0.260820
 H      -0.842070      -3.671788      -0.477390
 O       2.184871      -1.595112      -2.659960
 H       1.390391      -1.110262      -2.900520
 H       1.858491      -2.312491      -2.109540
 O      -2.088029       2.278219      -2.111640
 H      -1.292509       2.147699      -2.635330
 H      -2.281119       3.214118      -2.216350
 O       3.049551       1.838568       1.413700
 H       3.886441       1.523508       1.766530
 H       3.241311       2.738899       1.136650
 O       1.145571      -3.556041       1.434160
 H       1.412951      -3.273661       2.313300
 H       1.426051      -2.833501       0.865470
 O      -0.401829       3.211269       2.242610
 H      -0.883429       3.886559       1.756630
 H      -0.303449       3.587069       3.121920
 O      -4.026409      -0.014222      -0.923720
 H      -3.454369       0.412078      -0.279390
 H      -3.426559      -0.564542      -1.435040
 O       4.284761      -0.574742      -0.160520
 H       4.553581      -0.911182       0.698950
 H       3.324291      -0.585822      -0.121500
 O      -2.949179      -3.066671       0.434280
 H      -2.386929      -3.518931      -0.200900
 H      -3.803689      -3.494601       0.330400
 O      -3.250629       1.801848       2.491510
 H      -2.956689       1.903198       3.401140
 H      -2.437819       1.850608       1.980540
 O       1.074301      -4.000331      -1.731510
 H       0.605561      -4.156062      -0.906790
 H       0.440471      -4.255322      -2.407800
 O      -4.546109      -0.678862       1.936230
 H      -3.948709      -0.990772       1.250700
 H      -4.169189       0.164148       2.203420
 O       0.828151       4.968759       0.053780
 H       0.313641       4.211268       0.346400
 H       0.531591       5.113039      -0.849190

C O Cl N H 0
6-31g(d,p)
 ****
Pt 0
lanl2dz
****

Pt 0
lanl2dz

Pt 1.72

