%nprocshared=40
%mem=12000MB
%chk=scic0Pt001_in0000970.chk
%rwf=/
#p opt

Title Card Required

0 1
 Pt       0.008530       0.058172      -0.012010
 Cl      -0.169650       1.312792      -2.000420
 Cl       0.625710       1.885752       1.343930
 O       1.899590      -0.567918      -0.420640
 H       2.368840       0.216462      -0.744180
 O      -1.955860       0.171622       0.501610
 H      -2.178280       1.114882       0.471520
 N      -0.457330      -1.649588      -1.051620
 H       0.434920      -1.852938      -1.514010
 N       0.054020      -1.171608       1.631150
 H       0.841680      -0.926478       2.230180
 H      -0.833480      -0.931518       2.085060
 H      -1.182180      -1.452478      -1.740900
 C      -0.854650      -2.667778      -0.051610
 C       0.106470      -2.563238       1.126090
 H      -0.151880      -3.280998       1.905550
 H       1.131020      -2.733248       0.796320
 H      -1.867360      -2.414598       0.260820
 H      -0.842070      -3.671788      -0.477390
 O      -0.099347       1.610980      -3.620218
 H       0.696673       1.433190      -3.111438
 H      -0.137337       0.884650      -4.248798
 O      -1.142467       2.632340       2.813492
 H      -0.191317       2.631450       2.952892
 H      -1.505117       2.661290       3.703292
 O      -2.188247      -2.790200       2.013302
 H      -2.629547      -3.635830       1.893672
 H      -1.611667      -2.721430       1.247151
 O       4.032043      -1.651120       0.324462
 H       3.398123      -1.796140      -0.383528
 H       3.496393      -1.310350       1.046322
 O      -0.869887      -0.892520       4.147781
 H      -1.603127      -0.919680       4.768901
 H      -1.044317      -1.628150       3.554032
 O       1.514703      -4.030409      -0.792008
 H       0.971933      -4.723080      -1.178948
 H       1.562013      -3.362950      -1.482228
 O      -1.984537      -3.870530      -0.830748
 H      -2.047017      -3.946310      -1.787018
 H      -1.484667      -3.060440      -0.696568
 O      -2.498947      -1.536990      -3.300088
 H      -2.950137      -0.776560      -3.677308
 H      -3.145057      -1.910200      -2.693968
 O       2.371363       3.884190      -0.806628
 H       2.672553       3.162720      -0.247288
 H       2.036873       4.534501      -0.182668
 O      -0.482387       4.612630       0.452222
 H       0.280823       4.833021       0.993542
 H      -0.424357       3.658440       0.350782
 O      -1.926207       3.574650      -2.637608
 H      -1.857677       4.085131      -1.825928
 H      -1.052047       3.188190      -2.740558
 O      -3.412177       3.151220       1.382722
 H      -2.464977       3.088960       1.534512
 H      -3.795847       2.960110       2.243162

C O Cl N H 0
6-31g(d,p)
 ****
Pt 0
lanl2dz
****

Pt 0
lanl2dz

Pt 1.72

