%nprocshared=40
%mem=12000MB
%chk=scic0Pt001_in0000860.chk
%rwf=/
#p opt

Title Card Required

0 1
 Pt       0.008530       0.058172      -0.012010
 Cl      -0.169650       1.312792      -2.000420
 Cl       0.625710       1.885752       1.343930
 O       1.899590      -0.567918      -0.420640
 H       2.368840       0.216462      -0.744180
 O      -1.955860       0.171622       0.501610
 H      -2.178280       1.114882       0.471520
 N      -0.457330      -1.649588      -1.051620
 H       0.434920      -1.852938      -1.514010
 N       0.054020      -1.171608       1.631150
 H       0.841680      -0.926478       2.230180
 H      -0.833480      -0.931518       2.085060
 H      -1.182180      -1.452478      -1.740900
 C      -0.854650      -2.667778      -0.051610
 C       0.106470      -2.563238       1.126090
 H      -0.151880      -3.280998       1.905550
 H       1.131020      -2.733248       0.796320
 H      -1.867360      -2.414598       0.260820
 H      -0.842070      -3.671788      -0.477390
 O      -3.589129       0.325692       1.294159
 H      -4.082309      -0.038208       2.034739
 H      -2.875159      -0.304268       1.161749
 O       1.402051      -3.023889       2.036879
 H       1.960381      -3.215678       1.278229
 H       0.522381      -3.279319       1.745269
 O      -2.993629      -2.251069      -1.311451
 H      -3.673939      -1.584248      -1.440551
 H      -3.412019      -2.897909      -0.736431
 O       0.670631       4.088471       0.269759
 H       1.202431       4.661171      -0.289981
 H       1.069941       3.221351       0.156689
 O      -2.251389       3.536001      -0.528831
 H      -2.763119       4.229581      -0.103161
 H      -1.348899       3.865841      -0.500291
 O       3.171791       1.374492      -2.523451
 H       3.501891       0.816742      -1.813511
 H       3.964241       1.785222      -2.880421
 O       3.726461       1.115852       2.155869
 H       3.860011       1.865872       1.569549
 H       4.014881       0.361882       1.633889
 O       0.875001       2.640561      -3.511331
 H       0.812841       3.561692      -3.243401
 H       1.737681       2.365121      -3.188811
 O       1.400231      -0.426028      -4.514491
 H       1.897231      -1.132988      -4.093421
 H       1.486631       0.311102      -3.903521
 O      -1.123849      -3.761708      -2.749681
 H      -0.728489      -3.235888      -2.048711
 H      -1.726659      -3.150969      -3.182981
 O      -0.981379      -4.716449       0.967089
 H      -1.896669      -4.449479       1.089859
 H      -1.022309      -5.353949       0.248719
 O      -2.498339      -1.538798      -4.279850
 H      -1.842269      -0.836358      -4.262781
 H      -3.130909      -1.278898      -3.604261

C O Cl N H 0
6-31g(d,p)
 ****
Pt 0
lanl2dz
****

Pt 0
lanl2dz

Pt 1.72

