%nprocshared=40
%mem=12000MB
%chk=scic0Pt001_in0000830.chk
%rwf=/
#p opt

Title Card Required

0 1
 Pt       0.008530       0.058172      -0.012010
 Cl      -0.169650       1.312792      -2.000420
 Cl       0.625710       1.885752       1.343930
 O       1.899590      -0.567918      -0.420640
 H       2.368840       0.216462      -0.744180
 O      -1.955860       0.171622       0.501610
 H      -2.178280       1.114882       0.471520
 N      -0.457330      -1.649588      -1.051620
 H       0.434920      -1.852938      -1.514010
 N       0.054020      -1.171608       1.631150
 H       0.841680      -0.926478       2.230180
 H      -0.833480      -0.931518       2.085060
 H      -1.182180      -1.452478      -1.740900
 C      -0.854650      -2.667778      -0.051610
 C       0.106470      -2.563238       1.126090
 H      -0.151880      -3.280998       1.905550
 H       1.131020      -2.733248       0.796320
 H      -1.867360      -2.414598       0.260820
 H      -0.842070      -3.671788      -0.477390
 O      -2.416030       2.587908      -1.124658
 H      -2.667580       3.515198      -1.155898
 H      -1.457270       2.611968      -1.059188
 O      -3.085180      -1.650742       1.845512
 H      -3.359100      -1.824342       2.750472
 H      -2.124980      -1.668102       1.888692
 O       0.552630      -4.011312      -0.231798
 H       0.735380      -3.791312      -1.149598
 H      -0.205100      -4.600661      -0.283238
 O       3.422360       0.826018       2.542112
 H       3.025370       1.675008       2.755932
 H       4.062360       0.687788       3.245992
 O       1.417820      -1.365442       4.003912
 H       1.498840      -2.074412       3.359762
 H       1.501160      -1.813372       4.850392
 O       2.136210       3.188778       2.266662
 H       2.453910       3.711788       3.008052
 H       2.118020       3.813208       1.535982
 O       0.976130       4.464919       0.259492
 H       0.644600       3.949228      -0.480968
 H       1.746920       4.913349      -0.099568
 O       1.464910      -3.732032       2.584662
 H       1.071090      -4.041192       1.764062
 H       1.531790      -4.526842       3.121242
 O       1.998540       0.784598      -4.302638
 H       2.357220       1.366528      -3.626758
 H       2.758300       0.576648      -4.853678
 O       3.847460      -2.285152       2.017932
 H       3.657670      -1.345912       2.094992
 H       2.980390      -2.698622       2.054662
 O       2.839340       3.174688      -2.583398
 H       3.120610       2.942888      -1.693858
 H       3.619040       3.010338      -3.121118
 O       4.070560       2.888118      -0.047798
 H       3.990230       2.121798       0.527032
 H       5.012870       3.078338      -0.046858

C O Cl N H 0
6-31g(d,p)
 ****
Pt 0
lanl2dz
****

Pt 0
lanl2dz

Pt 1.72

