%nprocshared=40
%mem=12000MB
%chk=scic0Pt001_in0000520.chk
%rwf=/
#p opt

Title Card Required

0 1
 Pt       0.008530       0.058172      -0.012010
 Cl      -0.169650       1.312792      -2.000420
 Cl       0.625710       1.885752       1.343930
 O       1.899590      -0.567918      -0.420640
 H       2.368840       0.216462      -0.744180
 O      -1.955860       0.171622       0.501610
 H      -2.178280       1.114882       0.471520
 N      -0.457330      -1.649588      -1.051620
 H       0.434920      -1.852938      -1.514010
 N       0.054020      -1.171608       1.631150
 H       0.841680      -0.926478       2.230180
 H      -0.833480      -0.931518       2.085060
 H      -1.182180      -1.452478      -1.740900
 C      -0.854650      -2.667778      -0.051610
 C       0.106470      -2.563238       1.126090
 H      -0.151880      -3.280998       1.905550
 H       1.131020      -2.733248       0.796320
 H      -1.867360      -2.414598       0.260820
 H      -0.842070      -3.671788      -0.477390
 O       1.446710      -2.958609      -2.187190
 H       1.839780      -3.609539      -1.599050
 H       0.552090      -3.282799      -2.323730
 O       3.677171      -1.440819       0.023160
 H       4.328701      -1.594179      -0.666840
 H       4.090570      -0.781099       0.587050
 O      -0.526740       0.768191       3.891720
 H      -0.063410       1.606191       3.976570
 H      -0.384930       0.340171       4.740720
 O      -2.790679      -0.028819      -3.220270
 H      -2.411690      -0.503339      -3.965460
 H      -2.320139       0.809421      -3.218250
 O      -1.469050      -2.870089      -2.990560
 H      -1.357110      -2.191019      -2.319410
 H      -2.096060      -3.482429      -2.595600
 O       1.580740       3.937361       1.331700
 H       1.895250       3.669601       0.463650
 H       0.668840       3.633681       1.349470
 O       2.721370       3.423131      -0.906230
 H       2.159380       2.803941      -1.380500
 H       3.608551       3.202271      -1.203330
 O       2.907970       0.511661       3.666860
 H       3.815480       0.385021       3.376160
 H       2.386291       0.316131       2.883430
 O      -3.417040      -1.263139       2.830880
 H      -3.356560      -1.589309       3.733150
 H      -4.346370      -1.039209       2.729250
 O      -4.514100      -1.333139      -0.821010
 H      -3.712650      -1.210079      -1.337400
 H      -4.196129      -1.404039       0.083430
 O      -4.516099       1.184921       1.528610
 H      -3.883780       1.611971       0.943860
 H      -4.008510       1.006971       2.325360
 O       1.380311       2.826231       3.976980
 H       1.837891       3.360271       3.321570
 H       1.799680       1.964271       3.904510

C O Cl N H 0
6-31g(d,p)
 ****
Pt 0
lanl2dz
****

Pt 0
lanl2dz

Pt 1.72

