%nprocshared=40
%mem=12000MB
%chk=scic0Pt001_in0000480.chk
%rwf=/
#p opt

Title Card Required

0 1
 Pt       0.008530       0.058172      -0.012010
 Cl      -0.169650       1.312792      -2.000420
 Cl       0.625710       1.885752       1.343930
 O       1.899590      -0.567918      -0.420640
 H       2.368840       0.216462      -0.744180
 O      -1.955860       0.171622       0.501610
 H      -2.178280       1.114882       0.471520
 N      -0.457330      -1.649588      -1.051620
 H       0.434920      -1.852938      -1.514010
 N       0.054020      -1.171608       1.631150
 H       0.841680      -0.926478       2.230180
 H      -0.833480      -0.931518       2.085060
 H      -1.182180      -1.452478      -1.740900
 C      -0.854650      -2.667778      -0.051610
 C       0.106470      -2.563238       1.126090
 H      -0.151880      -3.280998       1.905550
 H       1.131020      -2.733248       0.796320
 H      -1.867360      -2.414598       0.260820
 H      -0.842070      -3.671788      -0.477390
 O      -0.800092      -3.456580      -0.783583
 H      -1.565052      -4.024740      -0.656613
 H      -1.137862      -2.573790      -0.608293
 O      -2.429432      -0.736480       2.724176
 H      -2.767032      -1.287140       3.436177
 H      -2.253692      -1.360630       2.014477
 O       1.930738       1.966350       2.708097
 H       2.333128       1.449840       3.411956
 H       2.037238       1.414360       1.928277
 O       3.721338      -0.586190      -0.882283
 H       4.455008      -0.401710      -0.289153
 H       3.015158      -0.020820      -0.557073
 O       1.945988       2.759300      -1.993873
 H       1.129638       2.960600      -2.459903
 H       2.629548       2.906920      -2.653464
 O      -3.560262      -1.124200      -2.028854
 H      -2.827372      -0.700790      -2.484634
 H      -3.700522      -1.936180      -2.523983
 O       2.068698      -2.848630      -2.586154
 H       2.978488      -2.571150      -2.446934
 H       1.700828      -2.158320      -3.144933
 O      -2.666662       1.445710      -3.267274
 H      -3.135352       1.991970      -2.630054
 H      -1.766332       1.781450      -3.239573
 O      -0.236962       0.943110       4.358567
 H       0.320008       1.079340       5.130167
 H      -0.346272       1.826370       3.995206
 O      -3.252822       1.845390       3.025076
 H      -3.392502       1.780470       3.973986
 H      -2.689592       1.092830       2.823646
 O       3.135668       0.095220      -3.744274
 H       3.236498       0.153260      -2.790024
 H       2.921528       0.994560      -4.007864
 O      -0.082292       4.889310      -1.342693
 H      -0.943912       4.893530      -0.916373
 H       0.493038       4.474111      -0.694043

C O Cl N H 0
6-31g(d,p)
 ****
Pt 0
lanl2dz
****

Pt 0
lanl2dz

Pt 1.72

