%nprocshared=40
%mem=12000MB
%chk=scic0Pt001_in0000620.chk
%rwf=/
#p opt

Title Card Required

0 1
 Pt       0.008530       0.058172      -0.012010
 Cl      -0.169650       1.312792      -2.000420
 Cl       0.625710       1.885752       1.343930
 O       1.899590      -0.567918      -0.420640
 H       2.368840       0.216462      -0.744180
 O      -1.955860       0.171622       0.501610
 H      -2.178280       1.114882       0.471520
 N      -0.457330      -1.649588      -1.051620
 H       0.434920      -1.852938      -1.514010
 N       0.054020      -1.171608       1.631150
 H       0.841680      -0.926478       2.230180
 H      -0.833480      -0.931518       2.085060
 H      -1.182180      -1.452478      -1.740900
 C      -0.854650      -2.667778      -0.051610
 C       0.106470      -2.563238       1.126090
 H      -0.151880      -3.280998       1.905550
 H       1.131020      -2.733248       0.796320
 H      -1.867360      -2.414598       0.260820
 H      -0.842070      -3.671788      -0.477390
 O      -1.120171       3.588062       0.900602
 H      -0.999781       4.523532       0.714822
 H      -0.323701       3.179762       0.549882
 O      -3.513231      -0.773998       1.812262
 H      -3.196990      -1.489588       1.253622
 H      -3.462991      -1.136888       2.701041
 O       1.069919      -4.032538       0.113822
 H       1.549229      -3.670978       0.864582
 H       0.772349      -3.254108      -0.365388
 O       3.117729       0.485032       2.664091
 H       3.507630      -0.175568       3.243491
 H       3.774869       1.186282       2.640101
 O       1.660949       1.280642      -3.781769
 H       1.181459       1.065472      -4.586699
 H       1.408469       0.583032      -3.170439
 O       2.113679      -2.759068       2.664021
 H       3.010570      -3.104638       2.681082
 H       1.759039      -2.997678       3.525061
 O      -3.595850       2.575952       0.296772
 H      -2.927820       3.250702       0.446932
 H      -4.185851       2.976172      -0.348098
 O      -4.295771       0.393812      -1.362978
 H      -3.470731       0.622872      -1.799938
 H      -4.101901       0.512832      -0.428978
 O      -0.637331       4.123852      -1.982648
 H      -1.242211       3.444892      -2.294499
 H      -0.506341       4.685702      -2.751589
 O       2.072289       3.747502       1.918182
 H       2.038389       4.514442       1.339552
 H       2.067209       3.001652       1.311702
 O      -0.896571      -3.762768      -2.662179
 H      -1.827571      -3.681328      -2.887378
 H      -0.736021      -4.710248      -2.687489
 O       3.083740       2.834212      -2.245289
 H       3.021280       3.674492      -2.708029
 H       2.598350       2.224992      -2.808629

C O Cl N H 0
6-31g(d,p)
 ****
Pt 0
lanl2dz
****

Pt 0
lanl2dz

Pt 1.72

