%nprocshared=40
%mem=12000MB
%chk=scic0Pt001_in0000080.chk
%rwf=/
#p opt

Title Card Required

0 1
 Pt       0.008530       0.058172      -0.012010
 Cl      -0.169650       1.312792      -2.000420
 Cl       0.625710       1.885752       1.343930
 O       1.899590      -0.567918      -0.420640
 H       2.368840       0.216462      -0.744180
 O      -1.955860       0.171622       0.501610
 H      -2.178280       1.114882       0.471520
 N      -0.457330      -1.649588      -1.051620
 H       0.434920      -1.852938      -1.514010
 N       0.054020      -1.171608       1.631150
 H       0.841680      -0.926478       2.230180
 H      -0.833480      -0.931518       2.085060
 H      -1.182180      -1.452478      -1.740900
 C      -0.854650      -2.667778      -0.051610
 C       0.106470      -2.563238       1.126090
 H      -0.151880      -3.280998       1.905550
 H       1.131020      -2.733248       0.796320
 H      -1.867360      -2.414598       0.260820
 H      -0.842070      -3.671788      -0.477390
 O      -1.551548       2.415988      -2.649389
 H      -0.773048       1.946198      -2.961459
 H      -1.487448       3.275418      -3.075309
 O      -3.275868      -0.156322      -2.431099
 H      -2.433968       0.235388      -2.182339
 H      -3.258498      -1.022382      -2.014259
 O      -3.189078      -2.338322      -0.802809
 H      -2.962208      -3.255622      -0.979459
 H      -3.829288      -2.393502      -0.087839
 O       2.530292       1.936357       2.619881
 H       2.780852       1.856508       3.544531
 H       2.935752       1.169858       2.204901
 O       3.715482      -0.570782       1.995501
 H       3.927832      -1.217242       2.674571
 H       2.971292      -0.962592       1.529871
 O       0.597822       3.684458       2.367421
 H       1.390692       3.174168       2.554731
 H       0.744672       4.019228       1.478331
 O      -0.063718      -4.416612      -1.259519
 H       0.174272      -4.363602      -0.329629
 H      -0.052848      -5.359572      -1.446149
 O       3.212802      -3.335212      -0.503289
 H       2.290472      -3.154632      -0.301209
 H       3.190682      -4.198072      -0.926489
 O       0.142942      -4.382193       1.431911
 H      -0.526838      -5.055643       1.580171
 H       0.626102      -4.351832       2.262441
 O       3.297692       1.321668      -3.159279
 H       4.199022       1.002378      -3.060419
 H       3.077252       1.661268      -2.287379
 O       0.483802       1.634357      -4.441699
 H       0.704012       2.540208      -4.676359
 H       1.212362       1.359367      -3.878039
 O      -1.470308       2.659188       3.695601
 H      -1.210118       2.493608       4.606101
 H      -0.678868       3.028538       3.293961

C O Cl N H 0
6-31g(d,p)
 ****
Pt 0
lanl2dz
****

Pt 0
lanl2dz

Pt 1.72

