%nprocshared=40
%mem=12000MB
%chk=scic0Pt001_in0000110.chk
%rwf=/
#p opt

Title Card Required

0 1
 Pt       0.008530       0.058172      -0.012010
 Cl      -0.169650       1.312792      -2.000420
 Cl       0.625710       1.885752       1.343930
 O       1.899590      -0.567918      -0.420640
 H       2.368840       0.216462      -0.744180
 O      -1.955860       0.171622       0.501610
 H      -2.178280       1.114882       0.471520
 N      -0.457330      -1.649588      -1.051620
 H       0.434920      -1.852938      -1.514010
 N       0.054020      -1.171608       1.631150
 H       0.841680      -0.926478       2.230180
 H      -0.833480      -0.931518       2.085060
 H      -1.182180      -1.452478      -1.740900
 C      -0.854650      -2.667778      -0.051610
 C       0.106470      -2.563238       1.126090
 H      -0.151880      -3.280998       1.905550
 H       1.131020      -2.733248       0.796320
 H      -1.867360      -2.414598       0.260820
 H      -0.842070      -3.671788      -0.477390
 O      -2.162821       2.508302      -1.423039
 H      -1.960161       3.440802      -1.306929
 H      -1.508421       2.208512      -2.060239
 O       1.528349      -3.383418      -1.131969
 H       1.862719      -2.499468      -0.956029
 H       2.308929      -3.941038      -1.069619
 O      -2.660481      -2.624218      -1.253219
 H      -2.420461      -3.250068      -1.942289
 H      -3.494821      -2.962378      -0.916099
 O       2.777659      -0.276808      -2.824789
 H       2.386769       0.555382      -3.105549
 H       3.538029      -0.380448      -3.403759
 O      -3.896551      -0.018738      -1.438539
 H      -3.254421       0.439402      -1.987999
 H      -3.487911      -0.872558      -1.270819
 O       2.796069       1.156502       2.911901
 H       2.768779       2.077552       3.185891
 H       3.044599       0.685862       3.712431
 O       3.917339      -1.528928       1.297701
 H       3.792859      -1.035648       2.113371
 H       3.350229      -1.076718       0.666821
 O      -0.946451       1.258842       4.167101
 H      -1.138461       0.638522       4.875951
 H      -0.513671       1.991702       4.614001
 O       3.926219       2.101572      -1.686339
 H       3.631399       1.227042      -1.955419
 H       4.866589       2.098562      -1.885869
 O      -4.195391      -0.217778       2.462161
 H      -3.345241       0.179802       2.254081
 H      -4.260811      -0.954768       1.848411
 O       0.500059       3.854182       2.949201
 H       0.609349       3.371142       2.125271
 H       1.351239       4.281471       3.079741
 O       1.758429      -2.723168      -3.731499
 H       1.888069      -1.771838      -3.779299
 H       1.489829      -2.873028      -2.820709

C O Cl N H 0
6-31g(d,p)
 ****
Pt 0
lanl2dz
****

Pt 0
lanl2dz

Pt 1.72

