%nprocshared=40
%mem=12000MB
%chk=scic0Pt001_in0000130.chk
%rwf=/
#p opt

Title Card Required

0 1
 Pt       0.008530       0.058172      -0.012010
 Cl      -0.169650       1.312792      -2.000420
 Cl       0.625710       1.885752       1.343930
 O       1.899590      -0.567918      -0.420640
 H       2.368840       0.216462      -0.744180
 O      -1.955860       0.171622       0.501610
 H      -2.178280       1.114882       0.471520
 N      -0.457330      -1.649588      -1.051620
 H       0.434920      -1.852938      -1.514010
 N       0.054020      -1.171608       1.631150
 H       0.841680      -0.926478       2.230180
 H      -0.833480      -0.931518       2.085060
 H      -1.182180      -1.452478      -1.740900
 C      -0.854650      -2.667778      -0.051610
 C       0.106470      -2.563238       1.126090
 H      -0.151880      -3.280998       1.905550
 H       1.131020      -2.733248       0.796320
 H      -1.867360      -2.414598       0.260820
 H      -0.842070      -3.671788      -0.477390
 O       0.669631      -2.780221      -2.930571
 H       1.621111      -2.646001      -2.958652
 H       0.363251      -2.430341      -3.771921
 O      -0.080149      -0.411161       4.096369
 H      -0.448989      -1.054081       4.708529
 H      -0.760309      -0.318041       3.423449
 O      -2.848449      -2.432161      -1.763262
 H      -3.592770      -2.079561      -1.267492
 H      -2.999099      -3.381581      -1.759802
 O       3.982040       0.121939       1.164728
 H       4.379591       0.862699       0.698518
 H       4.310230       0.213309       2.063648
 O      -2.759510      -2.380101       2.282779
 H      -2.290519      -1.643161       1.881428
 H      -3.015320      -2.046291       3.147218
 O      -3.554559       2.352519       1.606098
 H      -3.503910       2.439169       0.650038
 H      -4.497710       2.381479       1.789838
 O       1.857441       1.200709      -3.982421
 H       2.603781       1.253569      -3.378831
 H       2.257300       0.954829      -4.821332
 O       3.145251      -1.829701      -2.927531
 H       3.741991      -1.812121      -2.174052
 H       2.500640      -1.145561      -2.726202
 O      -2.168910      -1.071241      -4.227731
 H      -1.403739      -0.503091      -4.353491
 H      -2.215660      -1.186131      -3.274441
 O       0.500661       4.168109      -2.614411
 H       1.005621       3.986269      -3.411952
 H       1.149031       4.544549      -2.012712
 O      -1.262869       4.589609       1.617758
 H      -0.524909       4.125359       1.212758
 H      -1.737729       4.963029       0.869958
 O      -1.925729       2.787539       3.776139
 H      -2.275440       2.730089       2.882539
 H      -1.005749       2.525709       3.680179

C O Cl N H 0
6-31g(d,p)
 ****
Pt 0
lanl2dz
****

Pt 0
lanl2dz

Pt 1.72

