%nprocshared=40
%mem=12000MB
%chk=scic0Pt001_in0000710.chk
%rwf=/
#p opt

Title Card Required

0 1
 Pt       0.008530       0.058172      -0.012010
 Cl      -0.169650       1.312792      -2.000420
 Cl       0.625710       1.885752       1.343930
 O       1.899590      -0.567918      -0.420640
 H       2.368840       0.216462      -0.744180
 O      -1.955860       0.171622       0.501610
 H      -2.178280       1.114882       0.471520
 N      -0.457330      -1.649588      -1.051620
 H       0.434920      -1.852938      -1.514010
 N       0.054020      -1.171608       1.631150
 H       0.841680      -0.926478       2.230180
 H      -0.833480      -0.931518       2.085060
 H      -1.182180      -1.452478      -1.740900
 C      -0.854650      -2.667778      -0.051610
 C       0.106470      -2.563238       1.126090
 H      -0.151880      -3.280998       1.905550
 H       1.131020      -2.733248       0.796320
 H      -1.867360      -2.414598       0.260820
 H      -0.842070      -3.671788      -0.477390
 O       1.306361      -2.807409       1.593051
 H       0.543371      -2.251179       1.412431
 H       1.064681      -3.658329       1.216691
 O       1.232121       1.096981      -3.387129
 H       2.138901       0.785851      -3.458308
 H       0.713151       0.288251      -3.359679
 O      -0.481769       3.639361      -1.199349
 H       0.012341       2.875721      -0.888119
 H      -1.003899       3.293571      -1.928699
 O      -2.732099       2.984881       0.793481
 H      -3.503699       2.413991       0.846861
 H      -2.578739       3.076251      -0.151109
 O       4.125391      -0.648129       0.500311
 H       4.813701      -0.463699       1.145551
 H       4.230311      -1.585349       0.313881
 O      -2.548509       0.817401       3.344862
 H      -3.379569       0.412181       3.608141
 H      -2.236669       1.244631       4.147582
 O      -4.241499      -1.152649       0.378781
 H      -4.572419      -1.717429       1.082791
 H      -4.072869      -0.313859       0.817131
 O       3.312111       3.130931      -1.481229
 H       2.604581       2.719011      -0.977379
 H       3.942461       2.418011      -1.617369
 O       4.576501       0.465801      -1.920349
 H       5.211841      -0.222319      -2.137089
 H       4.399511       0.328991      -0.985419
 O      -1.039019       2.854301      -3.977949
 H      -0.357679       2.200141      -3.799129
 H      -0.545449       3.627521      -4.265419
 O      -2.396059      -2.437299       3.684042
 H      -2.467689      -1.740689       3.025481
 H      -2.685249      -2.014939       4.497731
 O       3.617171       3.204711       1.528281
 H       3.913511       3.005901       2.420911
 H       4.415121       3.125161       0.998141

C O Cl N H 0
6-31g(d,p)
 ****
Pt 0
lanl2dz
****

Pt 0
lanl2dz

Pt 1.72

