%nprocshared=40
%mem=12000MB
%chk=scic0Pt001_in0000790.chk
%rwf=/
#p opt

Title Card Required

0 1
 Pt       0.008530       0.058172      -0.012010
 Cl      -0.169650       1.312792      -2.000420
 Cl       0.625710       1.885752       1.343930
 O       1.899590      -0.567918      -0.420640
 H       2.368840       0.216462      -0.744180
 O      -1.955860       0.171622       0.501610
 H      -2.178280       1.114882       0.471520
 N      -0.457330      -1.649588      -1.051620
 H       0.434920      -1.852938      -1.514010
 N       0.054020      -1.171608       1.631150
 H       0.841680      -0.926478       2.230180
 H      -0.833480      -0.931518       2.085060
 H      -1.182180      -1.452478      -1.740900
 C      -0.854650      -2.667778      -0.051610
 C       0.106470      -2.563238       1.126090
 H      -0.151880      -3.280998       1.905550
 H       1.131020      -2.733248       0.796320
 H      -1.867360      -2.414598       0.260820
 H      -0.842070      -3.671788      -0.477390
 O       0.363909      -2.914227      -2.365431
 H      -0.315561      -2.234477      -2.385741
 H      -0.121591      -3.718447      -2.161350
 O       1.377730       3.051843       1.846210
 H       0.862240       2.892323       1.050629
 H       2.186100       3.456333       1.519040
 O      -3.794730       1.049473       0.855260
 H      -3.632051       1.190993       1.792099
 H      -4.575710       1.580203       0.674870
 O       3.521359      -0.239357       2.102119
 H       4.299330      -0.113907       1.551550
 H       3.609070      -1.141737       2.421730
 O       2.367640      -2.856017       1.993520
 H       1.946259      -3.718897       2.038470
 H       1.761680      -2.331737       1.462430
 O       0.755029       3.183443      -2.870491
 H       0.858169       3.462173      -3.784720
 H       1.581720       2.734563      -2.672410
 O      -3.274081      -3.113957       0.145970
 H      -3.136020      -2.725787       1.014529
 H      -3.625820      -2.388027      -0.376920
 O      -0.487481      -3.920897       2.435100
 H      -1.090780      -4.632957       2.204610
 H      -0.269700      -3.521087       1.588430
 O      -1.844500       3.696623       2.179470
 H      -1.959080       4.504323       1.670920
 H      -1.578260       3.047243       1.522550
 O      -3.852561       1.911823      -2.056890
 H      -3.902180       2.635003      -1.425490
 H      -3.164031       1.343033      -1.701221
 O      -3.449920      -1.925827       2.559070
 H      -4.323891      -1.527767       2.516239
 H      -3.468111      -2.432907       3.375550
 O      -4.627390      -0.896057      -0.823820
 H      -4.265690      -0.295787      -0.165800
 H      -5.557981      -0.658487      -0.864770

C O Cl N H 0
6-31g(d,p)
 ****
Pt 0
lanl2dz
****

Pt 0
lanl2dz

Pt 1.72

