%nprocshared=40
%mem=12000MB
%chk=scic0Pt001_in0000460.chk
%rwf=/
#p opt

Title Card Required

0 1
 Pt       0.008530       0.058172      -0.012010
 Cl      -0.169650       1.312792      -2.000420
 Cl       0.625710       1.885752       1.343930
 O       1.899590      -0.567918      -0.420640
 H       2.368840       0.216462      -0.744180
 O      -1.955860       0.171622       0.501610
 H      -2.178280       1.114882       0.471520
 N      -0.457330      -1.649588      -1.051620
 H       0.434920      -1.852938      -1.514010
 N       0.054020      -1.171608       1.631150
 H       0.841680      -0.926478       2.230180
 H      -0.833480      -0.931518       2.085060
 H      -1.182180      -1.452478      -1.740900
 C      -0.854650      -2.667778      -0.051610
 C       0.106470      -2.563238       1.126090
 H      -0.151880      -3.280998       1.905550
 H       1.131020      -2.733248       0.796320
 H      -1.867360      -2.414598       0.260820
 H      -0.842070      -3.671788      -0.477390
 O      -2.959518      -0.537988      -2.332600
 H      -2.290938       0.077042      -2.018150
 H      -2.450668      -1.294377      -2.637680
 O       1.288832       2.121512       3.069330
 H       2.046922       1.757553       3.535130
 H       1.359112       1.745922       2.187200
 O       1.944632       3.090222      -1.557830
 H       2.518272       3.285332      -0.811510
 H       2.062492       3.844742      -2.141700
 O       4.092932      -0.327368      -0.651910
 H       4.150662      -1.168198      -1.114270
 H       4.203792      -0.565508       0.272810
 O       1.229522      -3.322728      -2.326020
 H       0.358872      -3.047148      -2.626260
 H       1.138322      -4.270818      -2.195950
 O      -1.794658      -2.185648       3.155730
 H      -1.439108      -2.097178       4.044490
 H      -1.571918      -3.087328       2.907790
 O      -1.246188      -4.190438      -0.011860
 H      -0.416078      -4.244577       0.469910
 H      -1.341168      -3.252788      -0.201390
 O      -0.654938       3.575182      -2.436590
 H       0.051582       3.031232      -2.077290
 H      -1.304978       2.935812      -2.741230
 O      -1.197758       1.375062       3.944400
 H      -1.213378       1.108973       4.868030
 H      -0.474028       2.006162       3.899260
 O      -4.053188      -1.476488       2.098960
 H      -4.034028      -2.152608       1.415900
 H      -3.281478      -1.672178       2.637750
 O       3.761232       1.318163      -2.810390
 H       4.058272       0.705742      -2.131540
 H       3.071572       1.827023      -2.374990
 O      -1.401668      -3.045598      -3.417470
 H      -2.037508      -2.697078      -4.048650
 H      -1.757508      -3.907868      -3.185100

C O Cl N H 0
6-31g(d,p)
 ****
Pt 0
lanl2dz
****

Pt 0
lanl2dz

Pt 1.72

