%nprocshared=40
%mem=12000MB
%chk=scic0Pt001_in0000420.chk
%rwf=/
#p opt

Title Card Required

0 1
 Pt       0.008530       0.058172      -0.012010
 Cl      -0.169650       1.312792      -2.000420
 Cl       0.625710       1.885752       1.343930
 O       1.899590      -0.567918      -0.420640
 H       2.368840       0.216462      -0.744180
 O      -1.955860       0.171622       0.501610
 H      -2.178280       1.114882       0.471520
 N      -0.457330      -1.649588      -1.051620
 H       0.434920      -1.852938      -1.514010
 N       0.054020      -1.171608       1.631150
 H       0.841680      -0.926478       2.230180
 H      -0.833480      -0.931518       2.085060
 H      -1.182180      -1.452478      -1.740900
 C      -0.854650      -2.667778      -0.051610
 C       0.106470      -2.563238       1.126090
 H      -0.151880      -3.280998       1.905550
 H       1.131020      -2.733248       0.796320
 H      -1.867360      -2.414598       0.260820
 H      -0.842070      -3.671788      -0.477390
 O      -0.429047       3.289331       1.412787
 H      -0.366077       4.052661       0.831847
 H       0.230153       2.681591       1.065987
 O      -1.691437      -0.972309       3.666397
 H      -2.321637      -1.665249       3.882807
 H      -0.866077      -1.285179       4.047217
 O      -3.877997      -1.484919      -0.817603
 H      -3.798407      -0.542729      -0.644273
 H      -4.489007      -1.792069      -0.141983
 O       2.793723      -3.350599      -0.387883
 H       3.070483      -3.915209       0.339257
 H       3.484433      -2.683779      -0.436843
 O      -1.183537      -3.742739       2.165257
 H      -0.561747      -3.503139       2.858147
 H      -1.129527      -3.010489       1.544737
 O      -3.126917       1.506071       2.820417
 H      -3.446717       0.787961       3.373717
 H      -2.321317       1.793191       3.259397
 O       0.375433      -4.268118      -1.580983
 H      -0.195157      -3.494609      -1.566703
 H       1.189683      -3.960609      -1.172883
 O       1.968083       2.739301      -2.928203
 H       2.460653       3.286921      -3.545933
 H       2.614263       2.517531      -2.251903
 O       3.785583       2.382391      -1.115763
 H       4.703303       2.120541      -1.000373
 H       3.356543       2.076781      -0.311633
 O      -3.157527      -0.270349      -3.490983
 H      -3.093907       0.443421      -2.850193
 H      -2.913107      -1.052659      -2.988613
 O      -2.475527      -3.701799      -1.644553
 H      -2.921327      -2.920719      -1.304983
 H      -3.040927      -4.428029      -1.366993
 O       4.563263      -1.070329       0.689197
 H       4.816494      -1.536289       1.491027
 H       5.234143      -1.329339       0.051257

C O Cl N H 0
6-31g(d,p)
 ****
Pt 0
lanl2dz
****

Pt 0
lanl2dz

Pt 1.72

