%nprocshared=40
%mem=12000MB
%chk=scic0Pt001_in0000020.chk
%rwf=/
#p opt

Title Card Required

0 1
 Pt       0.008530       0.058172      -0.012010
 Cl      -0.169650       1.312792      -2.000420
 Cl       0.625710       1.885752       1.343930
 O       1.899590      -0.567918      -0.420640
 H       2.368840       0.216462      -0.744180
 O      -1.955860       0.171622       0.501610
 H      -2.178280       1.114882       0.471520
 N      -0.457330      -1.649588      -1.051620
 H       0.434920      -1.852938      -1.514010
 N       0.054020      -1.171608       1.631150
 H       0.841680      -0.926478       2.230180
 H      -0.833480      -0.931518       2.085060
 H      -1.182180      -1.452478      -1.740900
 C      -0.854650      -2.667778      -0.051610
 C       0.106470      -2.563238       1.126090
 H      -0.151880      -3.280998       1.905550
 H       1.131020      -2.733248       0.796320
 H      -1.867360      -2.414598       0.260820
 H      -0.842070      -3.671788      -0.477390
 O      -2.906376      -0.340381       2.573709
 H      -3.220577       0.310009       1.939349
 H      -3.498186      -1.087611       2.448989
 O      -1.964526       3.315589      -0.939311
 H      -1.794336       4.255959      -0.834981
 H      -1.355846       3.047489      -1.633411
 O       2.048434      -2.487481      -2.303951
 H       1.784814      -2.275941      -3.203881
 H       2.149523      -3.443421      -2.312781
 O       0.775214      -0.715841       3.826499
 H       0.701533      -1.652971       4.027719
 H       1.515114      -0.422511       4.365599
 O      -2.530886       0.668119      -3.266521
 H      -2.969546       0.378429      -2.461671
 H      -1.621716       0.378449      -3.149781
 O       3.364774      -0.633341       2.600159
 H       2.446834      -0.756711       2.342699
 H       3.669513       0.078629       2.030629
 O      -1.280006      -1.999371      -3.540581
 H      -2.053546      -2.552151      -3.398471
 H      -1.168966      -2.000591      -4.495461
 O       2.962154      -3.388491       0.411109
 H       2.790014      -3.776871       1.273469
 H       2.691144      -2.471881       0.513619
 O      -1.082706       1.382009       4.341639
 H      -0.413776       1.201299       3.675319
 H      -1.539396       0.542149       4.442489
 O       4.358913       1.355149       0.388049
 H       5.165524       1.622389       0.837619
 H       4.646594       1.172219      -0.510781
 O       3.963104      -0.082961      -2.785711
 H       4.814933      -0.499001      -2.626231
 H       3.326823      -0.757371      -2.531851
 O      -4.813897      -0.847731      -0.264811
 H      -5.439367      -0.836581       0.465109
 H      -4.072186      -0.329691       0.060179

C O Cl N H 0
6-31g(d,p)
 ****
Pt 0
lanl2dz
****

Pt 0
lanl2dz

Pt 1.72

