%nprocshared=40
%mem=12000MB
%chk=scic0Pt001_in0000940.chk
%rwf=/
#p opt

Title Card Required

0 1
 Pt       0.008530       0.058172      -0.012010
 Cl      -0.169650       1.312792      -2.000420
 Cl       0.625710       1.885752       1.343930
 O       1.899590      -0.567918      -0.420640
 H       2.368840       0.216462      -0.744180
 O      -1.955860       0.171622       0.501610
 H      -2.178280       1.114882       0.471520
 N      -0.457330      -1.649588      -1.051620
 H       0.434920      -1.852938      -1.514010
 N       0.054020      -1.171608       1.631150
 H       0.841680      -0.926478       2.230180
 H      -0.833480      -0.931518       2.085060
 H      -1.182180      -1.452478      -1.740900
 C      -0.854650      -2.667778      -0.051610
 C       0.106470      -2.563238       1.126090
 H      -0.151880      -3.280998       1.905550
 H       1.131020      -2.733248       0.796320
 H      -1.867360      -2.414598       0.260820
 H      -0.842070      -3.671788      -0.477390
 O      -1.664589       0.574832       3.447813
 H      -0.970209       0.735802       4.092833
 H      -2.212718      -0.096938       3.863013
 O       0.465031      -4.128639       0.373773
 H       0.673771      -3.233748       0.091463
 H      -0.332779      -4.344338      -0.117267
 O      -0.398439       3.869892      -1.557597
 H      -1.104359       4.370621      -1.976007
 H       0.025441       4.509851      -0.978907
 O      -2.139809      -1.308448      -3.501037
 H      -1.827439      -0.453608      -3.810507
 H      -1.915059      -1.310648      -2.566357
 O       2.511132       1.369102       3.199183
 H       1.580361       1.333282       3.436833
 H       2.603881       2.219702       2.761023
 O      -2.466709      -2.689668       2.127143
 H      -2.632648      -2.198688       2.936813
 H      -3.317249      -3.087598       1.921243
 O       1.806971      -2.829778      -2.638387
 H       2.052711      -3.751638      -2.756247
 H       1.979231      -2.434368      -3.497517
 O       4.116151      -1.947698      -0.086247
 H       3.188391      -2.099758      -0.286967
 H       4.408031      -1.354458      -0.784097
 O      -1.878179      -4.054718      -1.313797
 H      -1.498009      -3.195498      -1.517037
 H      -2.800919      -3.859588      -1.127807
 O      -1.165469       1.199182      -4.282017
 H      -1.882349       1.536472      -4.826477
 H      -0.762459       1.991502      -3.916047
 O      -0.274519       4.516091       1.313393
 H       0.099241       3.633652       1.237933
 H      -0.024029       4.796881       2.198013
 O       2.409642       3.780782       1.823203
 H       1.955351       4.609632       1.998613
 H       2.686451       3.860062       0.906053

C O Cl N H 0
6-31g(d,p)
 ****
Pt 0
lanl2dz
****

Pt 0
lanl2dz

Pt 1.72

