%nprocshared=40
%mem=12000MB
%chk=scic0Pt001_in0000930.chk
%rwf=/
#p opt

Title Card Required

0 1
 Pt       0.008530       0.058172      -0.012010
 Cl      -0.169650       1.312792      -2.000420
 Cl       0.625710       1.885752       1.343930
 O       1.899590      -0.567918      -0.420640
 H       2.368840       0.216462      -0.744180
 O      -1.955860       0.171622       0.501610
 H      -2.178280       1.114882       0.471520
 N      -0.457330      -1.649588      -1.051620
 H       0.434920      -1.852938      -1.514010
 N       0.054020      -1.171608       1.631150
 H       0.841680      -0.926478       2.230180
 H      -0.833480      -0.931518       2.085060
 H      -1.182180      -1.452478      -1.740900
 C      -0.854650      -2.667778      -0.051610
 C       0.106470      -2.563238       1.126090
 H      -0.151880      -3.280998       1.905550
 H       1.131020      -2.733248       0.796320
 H      -1.867360      -2.414598       0.260820
 H      -0.842070      -3.671788      -0.477390
 O      -1.849879      -2.960708       0.862311
 H      -1.279419      -2.841758       0.097761
 H      -2.705249      -3.175308       0.479671
 O       3.051521       1.700692       2.193611
 H       2.878691       0.762062       2.078721
 H       2.683911       1.897742       3.059711
 O      -1.108849      -0.143278      -3.977319
 H      -2.000579      -0.496348      -4.042649
 H      -1.030239       0.426422      -4.747629
 O       1.665881      -3.066858      -2.529309
 H       1.513441      -2.751288      -3.424459
 H       1.303391      -3.957188      -2.534649
 O      -1.940709       3.292702       2.281821
 H      -1.064219       3.021002       1.995321
 H      -2.109549       2.746322       3.054551
 O      -0.163309       3.712102      -2.279369
 H      -0.462359       4.375652      -2.907359
 H       0.636321       4.093092      -1.905829
 O      -2.625069       0.772212       3.516911
 H      -2.047889       0.493592       4.233391
 H      -3.493199       0.459232       3.786191
 O       0.900951       4.438293       0.484591
 H       0.647881       3.511052       0.467671
 H       0.564571       4.752963       1.328361
 O       4.428681      -1.704388       0.412241
 H       3.468961      -1.747568       0.446821
 H       4.687371      -2.579528       0.110021
 O      -2.565089      -2.770518      -2.968229
 H      -1.916449      -2.449278      -2.335649
 H      -3.405569      -2.479548      -2.603439
 O       2.220041      -4.203618      -0.041439
 H       2.456241      -4.981277      -0.554849
 H       1.802911      -3.622328      -0.683509
 O       0.185761      -4.377968       2.075931
 H      -0.462719      -3.755298       1.735561
 H       0.791501      -4.504097       1.340201

C O Cl N H 0
6-31g(d,p)
 ****
Pt 0
lanl2dz
****

Pt 0
lanl2dz

Pt 1.72

